Primitive Cell                          
   1.00000000000000     
    32.3778034822268665    0.2446422386268823    0.0000000000000000
   -15.9775363083501816   27.7423154387448889    0.0000000000000000
     0.0000000000000000    0.0000000000000000   20.0000000000000000
   O    H    C    N 
     6    45    72     5
Direct
  0.1835545241898231  0.6248932925577222  0.6707768732226782
  0.1341191148578673  0.5539309664403191  0.7129271322669126
  0.3590150202388926  0.8570694360158413  0.5280564210651804
  0.3800470857317677  0.9002367637223685  0.6203816217836930
  0.4423700931524763  0.5753532618059012  0.6699925183473354
  0.5200096027203713  0.6088964087781719  0.6798529819738164
  0.4204269745001810  0.7290519167857212  0.4359008537347293
  0.3034244298835063  0.6984442401854807  0.4646949280199664
  0.2158332506384752  0.6587933117964226  0.4709059626823375
  0.3274851812492940  0.5841194327391648  0.4778923595370941
  0.3023076489639536  0.5950556410834267  0.6039370747146506
  0.2148996255945974  0.5555225697318704  0.6101374358829617
  0.0603443210275074  0.5324478382299134  0.6459163018817193
  0.0642326643586557  0.5284197396512482  0.4302014542157266
  0.1514554162562192  0.5730671828368799  0.4342078313430733
  0.3967132961662472  0.8175539656719479  0.6226843151195496
  0.3535582923835463  0.7290288875846898  0.6219018115344781
  0.4615757558790605  0.8179336737196863  0.4338523580942351
  0.4469977392433861  0.7030548893950339  0.5737384472281590
  0.3701661805819185  0.5382496790090627  0.4793508378539002
  0.4899676011370317  0.6577654566484412  0.5732925923515282
  0.5163428636566678  0.0425115713057735  0.6233577510538097
  0.4488033463473258  0.9766026735662692  0.5685300237877726
  0.5313858901001041  0.5427944742158530  0.6266202737935203
  0.5685062872875974  0.9699357664522879  0.4858902229232456
  0.5223382719841752  0.8817631173488323  0.4891064456256231
  0.6155806143297227  0.1262768556905911  0.4258022942086512
  0.5709074831320748  0.0381018656872385  0.4284934338884696
  0.4849329284652981  0.4979682755590176  0.4239681755415674
  0.4405803599482496  0.5422795410850938  0.4267341033218202
  0.5308155077815044  0.3855530961473974  0.4743812856432896
  0.4853478846320058  0.4283223828575657  0.4744078647016607
  0.6017645244637961  0.5491635490099398  0.5713219375757603
  0.5681872163836417  0.1981606035698391  0.5802814434023276
  0.6140623963297145  0.2862909991643008  0.5812548537148103
  0.7227362841337381  0.2820252592063923  0.4616848285704833
  0.6779788073611570  0.1938738677349434  0.4633863366953506
  0.7547602363255734  0.3135521531201988  0.5834462348013147
  0.8417818446334095  0.3583022103032505  0.5857423536611748
  0.7074604941628024  0.4092876318755572  0.6094932272691622
  0.6616985872793748  0.4522028217017109  0.6100535937083080
  0.5872245599537180  0.3751191783079477  0.4326751979932837
  0.6314265604275775  0.3305961251382428  0.4347381438086018
  0.7539516984029788  0.4276290262354223  0.4697477804106782
  0.8409163461293332  0.4735238686863070  0.4751691534475384
  0.5621900077058655  0.1306475095080657  0.6217526180887347
  0.6482311443011426  0.5074306550502641  0.5686454113842387
  0.9944180975404322  0.4623309668661904  0.6297206337815524
  0.9075370281347972  0.4185651874976983  0.6278483394498551
  0.9091134178376521  0.4824219138881247  0.4372894331340831
  0.9958960493894722  0.5288228420927794  0.4414307412748215
  0.3087862470175153  0.6490964716994228  0.5331860951104659
  0.2838878803717293  0.6668498631427013  0.4961440216938655
  0.2346583525534598  0.6444151689852973  0.4996599719194705
  0.2088949095476025  0.6040482913508569  0.5404653605982617
  0.2341070014577440  0.5868090183909516  0.5779202854018237
  0.2832974485905027  0.6088628262402622  0.5745193485914939
  0.3630456846488386  0.6002296159689706  0.4991343866037070
  0.1564962697788914  0.5794341034498061  0.5412091745057452
  0.1285943511897827  0.5664982360008608  0.5995248403552722
  0.0792456911272197  0.5403480012345980  0.5984761301658281
  0.0546392768071655  0.5264654522909495  0.5375515835802460
  0.0819273795915336  0.5396138487335520  0.4785508994309922
  0.1312500059660451  0.5650557883735985  0.4806293894842426
  0.3841816454412452  0.7234164632302793  0.5288181749151946
  0.3837197596948556  0.6466527226915844  0.5268549672376039
  0.3774588967008015  0.7488126972987885  0.5809124804886636
  0.4014289009755529  0.7986748791200355  0.5805467458518194
  0.4322012131567519  0.8246776517477912  0.5278323986124676
  0.4388551961042850  0.7987139353455035  0.4761657837265574
  0.4154299272181916  0.7488022943546824  0.4766031033297367
  0.4300930423712543  0.6669596875453436  0.5528010106831402
  0.4541008602776486  0.6410669774758517  0.5527624020237596
  0.4330881985911859  0.5940799119316225  0.5273178915640742
  0.3873885124848755  0.5745997336866608  0.4996689751749130
  0.4581260339117676  0.8776440502153164  0.5265528624034772
  0.4395088280256658  0.9067711632480382  0.5488855100030889
  0.4583291309686857  0.5663327416832757  0.5284337680046249
  0.4658795848271282  0.9566378300971792  0.5508336115819645
  0.5126153198347367  0.9806374582211532  0.5268768892283759
  0.5401591420090810  0.0335524197920023  0.5260681437963655
  0.5377345090517451  0.0607911209977772  0.5795137700318023
  0.4846837110513746  0.5649492271306400  0.5836226394000903
  0.5119322161118447  0.5422764068972938  0.5818734136791335
  0.5121402780132769  0.5171103934000527  0.5246618283485844
  0.5400038448211575  0.4919574332269221  0.5230317767092814
  0.5859202808138804  0.5130358869225020  0.5503963030477479
  0.5318182211566622  0.9524144311174894  0.5032705943558682
  0.5055309418907967  0.9025700230288436  0.5043430024452178
  0.5946922824505805  0.1082182359937818  0.4700638299841700
  0.5693559968707902  0.0583095939295788  0.4714515678923092
  0.4847534979507842  0.5165183264460822  0.4696474375385620
  0.4593147671830238  0.5410762270097322  0.4714007270998692
  0.5472501587738208  0.4219492285377271  0.4943579714316400
  0.5213434463997615  0.4460355375897294  0.4945670987536346
  0.5635742704690898  0.1106733193851923  0.5784203571453688
  0.6719761328397880  0.2906418012992020  0.5220926477972938
  0.6723403197356106  0.3669858267666655  0.5222305819868183
  0.7478222146340698  0.3670143411954143  0.5257808048858479
  0.7735997930561354  0.3485001439754569  0.5591541744868920
  0.8228934352179706  0.3742301538774768  0.5607932317720170
  0.8487422892103211  0.4196370043364723  0.5304577021759158
  0.8224636454643459  0.4380511037536365  0.4981781803181136
  0.7732069821933294  0.4124052899601480  0.4953604714892847
  0.6280750990045263  0.2659877785554201  0.5552988773676049
  0.6024611239826214  0.2161377218099361  0.5549547948606275
  0.6194767118019939  0.1886317545725475  0.5223614143915469
  0.6632877698545485  0.2137675217614117  0.4888835922134191
  0.6889722552309365  0.2636387519377195  0.4881656129826837
  0.6809914374727057  0.4019664743402060  0.5708222734021291
  0.6554563576063686  0.4264164720327344  0.5703154150460819
  0.6206690890187900  0.4172037357949705  0.5213900881613540
  0.6127417088113063  0.3822220367778684  0.4726924833501371
  0.6379081429808124  0.3574007033606321  0.4730337186338360
  0.5925138514864940  0.1356794364962184  0.5235477775497017
  0.6120945611345334  0.4892386043759771  0.5490997510772218
  0.5933234535589520  0.4429394221927652  0.5214832599136940
  0.0022778106030756  0.4992560444874456  0.5357926337711447
  0.9759717590504309  0.4675729526090606  0.5876735246785785
  0.9266486351072558  0.4421176740478927  0.5860669872655251
  0.9010796479282490  0.4467466048412447  0.5323269376880546
  0.9275059870821920  0.4783269433718615  0.4803437669861452
  0.9768202474067920  0.5040575995915262  0.4821369710300942
  0.3589246271727760  0.6723580055132459  0.5289538188780227
  0.1507557714007461  0.5829965718649319  0.6659777320820623
  0.3889497215227919  0.8860251551336233  0.5674116805866873
  0.4821044774121148  0.5849591323626484  0.6491566620590987
  0.6978022694513157  0.3413259985809489  0.5229173635865791
 
  0.00000000E+00  0.00000000E+00  0.00000000E+00
  0.00000000E+00  0.00000000E+00  0.00000000E+00
  0.00000000E+00  0.00000000E+00  0.00000000E+00
  0.00000000E+00  0.00000000E+00  0.00000000E+00
  0.00000000E+00  0.00000000E+00  0.00000000E+00
  0.00000000E+00  0.00000000E+00  0.00000000E+00
  0.00000000E+00  0.00000000E+00  0.00000000E+00
  0.00000000E+00  0.00000000E+00  0.00000000E+00
  0.00000000E+00  0.00000000E+00  0.00000000E+00
  0.00000000E+00  0.00000000E+00  0.00000000E+00
  0.00000000E+00  0.00000000E+00  0.00000000E+00
  0.00000000E+00  0.00000000E+00  0.00000000E+00
  0.00000000E+00  0.00000000E+00  0.00000000E+00
  0.00000000E+00  0.00000000E+00  0.00000000E+00
  0.00000000E+00  0.00000000E+00  0.00000000E+00
  0.00000000E+00  0.00000000E+00  0.00000000E+00
  0.00000000E+00  0.00000000E+00  0.00000000E+00
  0.00000000E+00  0.00000000E+00  0.00000000E+00
  0.00000000E+00  0.00000000E+00  0.00000000E+00
  0.00000000E+00  0.00000000E+00  0.00000000E+00
  0.00000000E+00  0.00000000E+00  0.00000000E+00
  0.00000000E+00  0.00000000E+00  0.00000000E+00
  0.00000000E+00  0.00000000E+00  0.00000000E+00
  0.00000000E+00  0.00000000E+00  0.00000000E+00
  0.00000000E+00  0.00000000E+00  0.00000000E+00
  0.00000000E+00  0.00000000E+00  0.00000000E+00
  0.00000000E+00  0.00000000E+00  0.00000000E+00
  0.00000000E+00  0.00000000E+00  0.00000000E+00
  0.00000000E+00  0.00000000E+00  0.00000000E+00
  0.00000000E+00  0.00000000E+00  0.00000000E+00
  0.00000000E+00  0.00000000E+00  0.00000000E+00
  0.00000000E+00  0.00000000E+00  0.00000000E+00
  0.00000000E+00  0.00000000E+00  0.00000000E+00
  0.00000000E+00  0.00000000E+00  0.00000000E+00
  0.00000000E+00  0.00000000E+00  0.00000000E+00
  0.00000000E+00  0.00000000E+00  0.00000000E+00
  0.00000000E+00  0.00000000E+00  0.00000000E+00
  0.00000000E+00  0.00000000E+00  0.00000000E+00
  0.00000000E+00  0.00000000E+00  0.00000000E+00
  0.00000000E+00  0.00000000E+00  0.00000000E+00
  0.00000000E+00  0.00000000E+00  0.00000000E+00
  0.00000000E+00  0.00000000E+00  0.00000000E+00
  0.00000000E+00  0.00000000E+00  0.00000000E+00
  0.00000000E+00  0.00000000E+00  0.00000000E+00
  0.00000000E+00  0.00000000E+00  0.00000000E+00
  0.00000000E+00  0.00000000E+00  0.00000000E+00
  0.00000000E+00  0.00000000E+00  0.00000000E+00
  0.00000000E+00  0.00000000E+00  0.00000000E+00
  0.00000000E+00  0.00000000E+00  0.00000000E+00
  0.00000000E+00  0.00000000E+00  0.00000000E+00
  0.00000000E+00  0.00000000E+00  0.00000000E+00
  0.00000000E+00  0.00000000E+00  0.00000000E+00
  0.00000000E+00  0.00000000E+00  0.00000000E+00
  0.00000000E+00  0.00000000E+00  0.00000000E+00
  0.00000000E+00  0.00000000E+00  0.00000000E+00
  0.00000000E+00  0.00000000E+00  0.00000000E+00
  0.00000000E+00  0.00000000E+00  0.00000000E+00
  0.00000000E+00  0.00000000E+00  0.00000000E+00
  0.00000000E+00  0.00000000E+00  0.00000000E+00
  0.00000000E+00  0.00000000E+00  0.00000000E+00
  0.00000000E+00  0.00000000E+00  0.00000000E+00
  0.00000000E+00  0.00000000E+00  0.00000000E+00
  0.00000000E+00  0.00000000E+00  0.00000000E+00
  0.00000000E+00  0.00000000E+00  0.00000000E+00
  0.00000000E+00  0.00000000E+00  0.00000000E+00
  0.00000000E+00  0.00000000E+00  0.00000000E+00
  0.00000000E+00  0.00000000E+00  0.00000000E+00
  0.00000000E+00  0.00000000E+00  0.00000000E+00
  0.00000000E+00  0.00000000E+00  0.00000000E+00
  0.00000000E+00  0.00000000E+00  0.00000000E+00
  0.00000000E+00  0.00000000E+00  0.00000000E+00
  0.00000000E+00  0.00000000E+00  0.00000000E+00
  0.00000000E+00  0.00000000E+00  0.00000000E+00
  0.00000000E+00  0.00000000E+00  0.00000000E+00
  0.00000000E+00  0.00000000E+00  0.00000000E+00
  0.00000000E+00  0.00000000E+00  0.00000000E+00
  0.00000000E+00  0.00000000E+00  0.00000000E+00
  0.00000000E+00  0.00000000E+00  0.00000000E+00
  0.00000000E+00  0.00000000E+00  0.00000000E+00
  0.00000000E+00  0.00000000E+00  0.00000000E+00
  0.00000000E+00  0.00000000E+00  0.00000000E+00
  0.00000000E+00  0.00000000E+00  0.00000000E+00
  0.00000000E+00  0.00000000E+00  0.00000000E+00
  0.00000000E+00  0.00000000E+00  0.00000000E+00
  0.00000000E+00  0.00000000E+00  0.00000000E+00
  0.00000000E+00  0.00000000E+00  0.00000000E+00
  0.00000000E+00  0.00000000E+00  0.00000000E+00
  0.00000000E+00  0.00000000E+00  0.00000000E+00
  0.00000000E+00  0.00000000E+00  0.00000000E+00
  0.00000000E+00  0.00000000E+00  0.00000000E+00
  0.00000000E+00  0.00000000E+00  0.00000000E+00
  0.00000000E+00  0.00000000E+00  0.00000000E+00
  0.00000000E+00  0.00000000E+00  0.00000000E+00
  0.00000000E+00  0.00000000E+00  0.00000000E+00
  0.00000000E+00  0.00000000E+00  0.00000000E+00
  0.00000000E+00  0.00000000E+00  0.00000000E+00
  0.00000000E+00  0.00000000E+00  0.00000000E+00
  0.00000000E+00  0.00000000E+00  0.00000000E+00
  0.00000000E+00  0.00000000E+00  0.00000000E+00
  0.00000000E+00  0.00000000E+00  0.00000000E+00
  0.00000000E+00  0.00000000E+00  0.00000000E+00
  0.00000000E+00  0.00000000E+00  0.00000000E+00
  0.00000000E+00  0.00000000E+00  0.00000000E+00
  0.00000000E+00  0.00000000E+00  0.00000000E+00
  0.00000000E+00  0.00000000E+00  0.00000000E+00
  0.00000000E+00  0.00000000E+00  0.00000000E+00
  0.00000000E+00  0.00000000E+00  0.00000000E+00
  0.00000000E+00  0.00000000E+00  0.00000000E+00
  0.00000000E+00  0.00000000E+00  0.00000000E+00
  0.00000000E+00  0.00000000E+00  0.00000000E+00
  0.00000000E+00  0.00000000E+00  0.00000000E+00
  0.00000000E+00  0.00000000E+00  0.00000000E+00
  0.00000000E+00  0.00000000E+00  0.00000000E+00
  0.00000000E+00  0.00000000E+00  0.00000000E+00
  0.00000000E+00  0.00000000E+00  0.00000000E+00
  0.00000000E+00  0.00000000E+00  0.00000000E+00
  0.00000000E+00  0.00000000E+00  0.00000000E+00
  0.00000000E+00  0.00000000E+00  0.00000000E+00
  0.00000000E+00  0.00000000E+00  0.00000000E+00
  0.00000000E+00  0.00000000E+00  0.00000000E+00
  0.00000000E+00  0.00000000E+00  0.00000000E+00
  0.00000000E+00  0.00000000E+00  0.00000000E+00
  0.00000000E+00  0.00000000E+00  0.00000000E+00
  0.00000000E+00  0.00000000E+00  0.00000000E+00
  0.00000000E+00  0.00000000E+00  0.00000000E+00
  0.00000000E+00  0.00000000E+00  0.00000000E+00
  0.00000000E+00  0.00000000E+00  0.00000000E+00
  0.00000000E+00  0.00000000E+00  0.00000000E+00
