Primitive Cell                          
   1.00000000000000     
    25.0101466568862918   -0.0177614331284744    0.0000000000000000
    -0.0351218956513188   25.0135309730445492    0.0000000000000000
     0.0000000000000000    0.0000000000000000   20.0000000000000000
   N    H    C    O 
    12    46    58     2
Direct
  0.9333378266537267  0.9487520455330554  0.5044497918179189
  0.9568277234710436  0.0641379192946800  0.5015249961015371
  0.0723324341338483  0.0451284550506230  0.4964303805005770
  0.0490824717265355  0.9298177341726657  0.4987820390743636
  0.5306301058770515  0.0420275728128772  0.5363748638805390
  0.3948312379998100  0.9880019617974156  0.5161575686095148
  0.0489368522709057  0.4700979602695838  0.5371969733358597
  0.9941620113832812  0.6051760214474982  0.5151739856466904
  0.4735443743476111  0.9711247951398718  0.4558776802195794
  0.6089459388433838  0.0233888886038400  0.4751904112337684
  0.9775442587330758  0.5257408344815531  0.4561615208087986
  0.0301911363526841  0.3909575422397324  0.4778554767518699
  0.6967027295365611  0.0161628579866502  0.5988206830466751
  0.7940250070170194  0.9965348685487285  0.5979718897805384
  0.8040440018358268  0.9252745893662961  0.4909525693668684
  0.8649157412658965  0.8366335912751737  0.4890798316623659
  0.9670220019620928  0.9717916132630577  0.5067971831526918
  0.0386273935322805  0.0221730616251676  0.4934919371512336
  0.8426222528750458  0.1352014634153633  0.5069507193687883
  0.9309045064493517  0.1962731640149471  0.5034635804818492
  0.0033814357604527  0.2048919240460805  0.6007572341157896
  0.0235500194126246  0.3021436883134001  0.6034451783850656
  0.1408568374455186  0.1570402705198077  0.5135634723320024
  0.2015987188640338  0.0685205969973595  0.5108829475011234
  0.0750637273613819  0.7977003020890194  0.4970251624436628
  0.1633241377921451  0.8588050376711820  0.4931056984128759
  0.1999316432565834  0.9208446317103309  0.5915685539973907
  0.2980538897633167  0.9055116759195059  0.5890168961707545
  0.9144400300421012  0.7004684421768133  0.5900217047356406
  0.9302142502113924  0.7985467809372153  0.5932417752432997
  0.3813165409165791  0.9039061646862763  0.5254311446814270
  0.9099416150866091  0.6177904663768174  0.5241551898148558
  0.6235427568059677  0.0738431846286574  0.5551710857837548
  0.0784572338085994  0.3766785068111744  0.5600531306290151
  0.4597591033424990  0.0531793912318435  0.5890153159402445
  0.3801457810029731  0.0024199491843575  0.5599148030692973
  0.0601098729902532  0.5416279075676442  0.5885192826168648
  0.0088528357776028  0.6205680470231769  0.5584337474537122
  0.7117493257149263  0.0946124130748416  0.4082253295566929
  0.8087216164622575  0.0734002188939726  0.4064070112227114
  0.0780944681864710  0.1930023214381649  0.4075563427155586
  0.0998989415178926  0.2898468181568745  0.4112308470883406
  0.2093269753156122  0.9993702277314398  0.4005439271628433
  0.3076496074762431  0.9855531928993244  0.3989312021801226
  0.0022211028245565  0.7911858446914124  0.3981234771222333
  0.9879097379395887  0.6928945732649439  0.3956923950279005
  0.3843395002261190  0.9301039645342541  0.4431620371686336
  0.9363085859129470  0.6150109174335370  0.4419443740400553
  0.6300314126585533  0.1059003246091379  0.4766808603026362
  0.1126988114945604  0.3706990382085280  0.4830061320425116
  0.5481004147570019  0.9091360764059502  0.3126649545327425
  0.5035670288551302  0.8892686745209630  0.3791567984348703
  0.4870323847521760  0.9454040872511058  0.3279815326047029
  0.6225676472728523  0.0087909151730585  0.4310560896866136
  0.9149117434186351  0.4492564214444670  0.3148878711995025
  0.8956076697093920  0.4944995730413808  0.3807947061276522
  0.9512782880123112  0.5106630202454809  0.3285067154657213
  0.0157872485332007  0.3764485510196423  0.4340404244759952
  0.8471817165620479  0.9229233991413253  0.4954525645705772
  0.8782332530402570  0.8776930976703952  0.4945047315554731
  0.9331353293480618  0.8938172635726076  0.5001061522544177
  0.8819586777651693  0.9683416759574470  0.5016949879170340
  0.8667130685058808  0.0224625472995186  0.5022570082827613
  0.9020800934992934  0.0666316155798086  0.5026150992018827
  0.9738523482485988  0.1163118766713609  0.5022962007106457
  0.9285986505204846  0.1529471797572839  0.5034695060241248
  0.8838754805272373  0.1220019909617847  0.5046528226366362
  0.0276320834751047  0.1336930825691169  0.5020660536444481
  0.0726113528813315  0.1000305822126180  0.5011457007577320
  0.1236969856559540  0.0255302709473852  0.4990319211696175
  0.1584865972122458  0.0708578989608668  0.5060849275766444
  0.1274784510093028  0.1160764804165026  0.5074266339704963
  0.1390933410999722  0.9714644568950561  0.4975383431050560
  0.1038366080486028  0.9272851675024896  0.4973806558003133
  0.0320242113527271  0.8776924321359658  0.4980992891655873
  0.0773146415760237  0.8410269419656231  0.4968317515700917
  0.1220476534669785  0.8719624824579881  0.4954062557160697
  0.9782098257459424  0.8603003625976058  0.4985480949883581
  0.9677168298658572  0.8016536032762431  0.4961635703836009
  0.9425229404675690  0.7754274099309626  0.5496306042074863
  0.9339461583519295  0.7202461078338516  0.5478114672098897
  0.9503912067896394  0.6898182638555070  0.4927945069285471
  0.1977821049290895  0.9613141159286869  0.4963559836158851
  0.2234887893321158  0.9346768510465679  0.5490217208474775
  0.2786897809628215  0.9263497736978437  0.5475744801225915
  0.3096643274307453  0.9446138360704168  0.4938909277138563
  0.0390021063379393  0.1921858227853832  0.5037431188362547
  0.0630586067498342  0.3028052718691612  0.5075387321700191
  0.0355937761026439  0.2782107339140367  0.5603549360519153
  0.0239343444603861  0.2237099083361755  0.5587535432779660
  0.8081815456349091  0.0335104409253262  0.5020437727973359
  0.7757845265166594  0.0174273707099530  0.5558839253267820
  0.7212591226451792  0.0287802383159956  0.5564909324715615
  0.6974530499677698  0.0568214505848772  0.5036615056794389
  0.3695878860843109  0.9383325208296540  0.4938334487155984
  0.9443709199679020  0.6298420435742855  0.4926296271124642
  0.6382897620773633  0.0682526973505375  0.5039341394794192
  0.0743428298978728  0.3620194571575794  0.5085491927772523
  0.4785917144406611  0.0319713821581828  0.5474378173830630
  0.4493068776989162  0.9965314074616529  0.5073481150765673
  0.0387594887812952  0.5221842079250152  0.5474281240656609
  0.0030008344109191  0.5507257190731281  0.5071172427769497
  0.9750096519790006  0.7160848922702669  0.4390262337612114
  0.9833214912142481  0.7711462938779547  0.4404457125846335
  0.2839962434625392  0.9710830872627696  0.4411390573992264
  0.2289338368760099  0.9791439587234123  0.4421708485435545
  0.0662618536109107  0.2169321735840128  0.4506860981028069
  0.0782645716112214  0.2714194682285012  0.4527725871142536
  0.7841581582732644  0.0609696623993443  0.4487414108667664
  0.7296113752979352  0.0726426251177443  0.4498152153843265
  0.5548734757763611  0.0167811141386736  0.4862094319731369
  0.5245211669701888  0.9811016268154731  0.4454715517240615
  0.5201556291981859  0.9231704086601482  0.3509586166828242
  0.0235045094341046  0.4450914508867285  0.4876811864021420
  0.9876554266951061  0.4747459767887250  0.4465421035510602
  0.9292674414829420  0.4777272983963599  0.3524389000543167
  0.5512107334476610  0.9574390449130235  0.3938482919808450
  0.9639255882766733  0.4473743957851539  0.3954622009123909
 
  0.00000000E+00  0.00000000E+00  0.00000000E+00
  0.00000000E+00  0.00000000E+00  0.00000000E+00
  0.00000000E+00  0.00000000E+00  0.00000000E+00
  0.00000000E+00  0.00000000E+00  0.00000000E+00
  0.00000000E+00  0.00000000E+00  0.00000000E+00
  0.00000000E+00  0.00000000E+00  0.00000000E+00
  0.00000000E+00  0.00000000E+00  0.00000000E+00
  0.00000000E+00  0.00000000E+00  0.00000000E+00
  0.00000000E+00  0.00000000E+00  0.00000000E+00
  0.00000000E+00  0.00000000E+00  0.00000000E+00
  0.00000000E+00  0.00000000E+00  0.00000000E+00
  0.00000000E+00  0.00000000E+00  0.00000000E+00
  0.00000000E+00  0.00000000E+00  0.00000000E+00
  0.00000000E+00  0.00000000E+00  0.00000000E+00
  0.00000000E+00  0.00000000E+00  0.00000000E+00
  0.00000000E+00  0.00000000E+00  0.00000000E+00
  0.00000000E+00  0.00000000E+00  0.00000000E+00
  0.00000000E+00  0.00000000E+00  0.00000000E+00
  0.00000000E+00  0.00000000E+00  0.00000000E+00
  0.00000000E+00  0.00000000E+00  0.00000000E+00
  0.00000000E+00  0.00000000E+00  0.00000000E+00
  0.00000000E+00  0.00000000E+00  0.00000000E+00
  0.00000000E+00  0.00000000E+00  0.00000000E+00
  0.00000000E+00  0.00000000E+00  0.00000000E+00
  0.00000000E+00  0.00000000E+00  0.00000000E+00
  0.00000000E+00  0.00000000E+00  0.00000000E+00
  0.00000000E+00  0.00000000E+00  0.00000000E+00
  0.00000000E+00  0.00000000E+00  0.00000000E+00
  0.00000000E+00  0.00000000E+00  0.00000000E+00
  0.00000000E+00  0.00000000E+00  0.00000000E+00
  0.00000000E+00  0.00000000E+00  0.00000000E+00
  0.00000000E+00  0.00000000E+00  0.00000000E+00
  0.00000000E+00  0.00000000E+00  0.00000000E+00
  0.00000000E+00  0.00000000E+00  0.00000000E+00
  0.00000000E+00  0.00000000E+00  0.00000000E+00
  0.00000000E+00  0.00000000E+00  0.00000000E+00
  0.00000000E+00  0.00000000E+00  0.00000000E+00
  0.00000000E+00  0.00000000E+00  0.00000000E+00
  0.00000000E+00  0.00000000E+00  0.00000000E+00
  0.00000000E+00  0.00000000E+00  0.00000000E+00
  0.00000000E+00  0.00000000E+00  0.00000000E+00
  0.00000000E+00  0.00000000E+00  0.00000000E+00
  0.00000000E+00  0.00000000E+00  0.00000000E+00
  0.00000000E+00  0.00000000E+00  0.00000000E+00
  0.00000000E+00  0.00000000E+00  0.00000000E+00
  0.00000000E+00  0.00000000E+00  0.00000000E+00
  0.00000000E+00  0.00000000E+00  0.00000000E+00
  0.00000000E+00  0.00000000E+00  0.00000000E+00
  0.00000000E+00  0.00000000E+00  0.00000000E+00
  0.00000000E+00  0.00000000E+00  0.00000000E+00
  0.00000000E+00  0.00000000E+00  0.00000000E+00
  0.00000000E+00  0.00000000E+00  0.00000000E+00
  0.00000000E+00  0.00000000E+00  0.00000000E+00
  0.00000000E+00  0.00000000E+00  0.00000000E+00
  0.00000000E+00  0.00000000E+00  0.00000000E+00
  0.00000000E+00  0.00000000E+00  0.00000000E+00
  0.00000000E+00  0.00000000E+00  0.00000000E+00
  0.00000000E+00  0.00000000E+00  0.00000000E+00
  0.00000000E+00  0.00000000E+00  0.00000000E+00
  0.00000000E+00  0.00000000E+00  0.00000000E+00
  0.00000000E+00  0.00000000E+00  0.00000000E+00
  0.00000000E+00  0.00000000E+00  0.00000000E+00
  0.00000000E+00  0.00000000E+00  0.00000000E+00
  0.00000000E+00  0.00000000E+00  0.00000000E+00
  0.00000000E+00  0.00000000E+00  0.00000000E+00
  0.00000000E+00  0.00000000E+00  0.00000000E+00
  0.00000000E+00  0.00000000E+00  0.00000000E+00
  0.00000000E+00  0.00000000E+00  0.00000000E+00
  0.00000000E+00  0.00000000E+00  0.00000000E+00
  0.00000000E+00  0.00000000E+00  0.00000000E+00
  0.00000000E+00  0.00000000E+00  0.00000000E+00
  0.00000000E+00  0.00000000E+00  0.00000000E+00
  0.00000000E+00  0.00000000E+00  0.00000000E+00
  0.00000000E+00  0.00000000E+00  0.00000000E+00
  0.00000000E+00  0.00000000E+00  0.00000000E+00
  0.00000000E+00  0.00000000E+00  0.00000000E+00
  0.00000000E+00  0.00000000E+00  0.00000000E+00
  0.00000000E+00  0.00000000E+00  0.00000000E+00
  0.00000000E+00  0.00000000E+00  0.00000000E+00
  0.00000000E+00  0.00000000E+00  0.00000000E+00
  0.00000000E+00  0.00000000E+00  0.00000000E+00
  0.00000000E+00  0.00000000E+00  0.00000000E+00
  0.00000000E+00  0.00000000E+00  0.00000000E+00
  0.00000000E+00  0.00000000E+00  0.00000000E+00
  0.00000000E+00  0.00000000E+00  0.00000000E+00
  0.00000000E+00  0.00000000E+00  0.00000000E+00
  0.00000000E+00  0.00000000E+00  0.00000000E+00
  0.00000000E+00  0.00000000E+00  0.00000000E+00
  0.00000000E+00  0.00000000E+00  0.00000000E+00
  0.00000000E+00  0.00000000E+00  0.00000000E+00
  0.00000000E+00  0.00000000E+00  0.00000000E+00
  0.00000000E+00  0.00000000E+00  0.00000000E+00
  0.00000000E+00  0.00000000E+00  0.00000000E+00
  0.00000000E+00  0.00000000E+00  0.00000000E+00
  0.00000000E+00  0.00000000E+00  0.00000000E+00
  0.00000000E+00  0.00000000E+00  0.00000000E+00
  0.00000000E+00  0.00000000E+00  0.00000000E+00
  0.00000000E+00  0.00000000E+00  0.00000000E+00
  0.00000000E+00  0.00000000E+00  0.00000000E+00
  0.00000000E+00  0.00000000E+00  0.00000000E+00
  0.00000000E+00  0.00000000E+00  0.00000000E+00
  0.00000000E+00  0.00000000E+00  0.00000000E+00
  0.00000000E+00  0.00000000E+00  0.00000000E+00
  0.00000000E+00  0.00000000E+00  0.00000000E+00
  0.00000000E+00  0.00000000E+00  0.00000000E+00
  0.00000000E+00  0.00000000E+00  0.00000000E+00
  0.00000000E+00  0.00000000E+00  0.00000000E+00
  0.00000000E+00  0.00000000E+00  0.00000000E+00
  0.00000000E+00  0.00000000E+00  0.00000000E+00
  0.00000000E+00  0.00000000E+00  0.00000000E+00
  0.00000000E+00  0.00000000E+00  0.00000000E+00
  0.00000000E+00  0.00000000E+00  0.00000000E+00
  0.00000000E+00  0.00000000E+00  0.00000000E+00
  0.00000000E+00  0.00000000E+00  0.00000000E+00
  0.00000000E+00  0.00000000E+00  0.00000000E+00
  0.00000000E+00  0.00000000E+00  0.00000000E+00
  0.00000000E+00  0.00000000E+00  0.00000000E+00
  0.00000000E+00  0.00000000E+00  0.00000000E+00
