Primitive Cell                          
   1.00000000000000     
    24.7782587127880127    0.0624651654615966    0.0000000000000000
   -12.3365462570609488   21.3635538837520365    0.0000000000000000
    -0.0000000000000099   -0.0000000000000098   20.0000000000000000
   C    N    H 
    60     2    48
Direct
  0.2525396345655437  0.5908329685421378  0.4854109725263669
  0.3515186212222616  0.5904830223400594  0.4726304245288588
  0.3513515315040223  0.6892772059484642  0.4795996258800628
  0.3949606501957916  0.7223978216076432  0.4293069232421374
  0.4278101627322215  0.7874938339809603  0.4299813766133838
  0.4178651833367155  0.8214160696612396  0.4801464862987643
  0.3738472665376591  0.7876944037012166  0.5300223675624878
  0.3411502733518859  0.7225715650623954  0.5301619906740669
  0.2201998069672442  0.5328262516202358  0.5182793158841363
  0.1554881571864755  0.5012120957223800  0.5218321235142511
  0.1205024798048981  0.5262622298525415  0.4941364330611933
  0.1534353097960732  0.5851606997746615  0.4634227636715096
  0.2180139533659897  0.6168457878164588  0.4585239403445769
  0.3265906218277124  0.5334145515716457  0.4379440169729776
  0.3595015860149715  0.5013362196213507  0.4339322706072792
  0.4186013564753566  0.5251194252399145  0.4630351981755325
  0.4439697998274283  0.5832142719776243  0.4954739283963150
  0.4112299065695666  0.6153060606335998  0.5007865464637860
  0.7191471176618833  0.3250172724839331  0.4858466462868094
  0.6210545585699663  0.3248226333895516  0.4745227450355571
  0.6205735341197283  0.2251782456260614  0.4803736430914682
  0.5590786596927586  0.1917156977470995  0.5044854170348003
  0.5266254943563879  0.1267486806215032  0.5037364639399442
  0.5539839683320480  0.0922279706500007  0.4802881354053099
  0.6156155295212073  0.1261589873126354  0.4568412510671536
  0.6482388982205691  0.1911358723956837  0.4561428129715992
  0.7540721323959403  0.3761372308638400  0.4434341922447302
  0.8186846708558022  0.4088799581412275  0.4472757268098633
  0.8507339651651478  0.3921357251456712  0.4933952771002339
  0.8152013171628596  0.3417453633154324  0.5366377318522524
  0.7504985447461934  0.3086038899244201  0.5331109413864397
  0.5759843600382268  0.3101255625710735  0.4246077251657709
  0.5438462374369308  0.3429621791668893  0.4203555500301803
  0.5553672677211736  0.3911251277486727  0.4657029871895659
  0.6014475418954746  0.4061209757419775  0.5146683813143511
  0.6339887992693249  0.3737761497737324  0.5190789790999091
  0.9532341004137663  0.4408459549282497  0.4348197274607202
  0.0182349646605005  0.4727890528068386  0.4338315934284580
  0.0512558004361665  0.4913257762362875  0.4950549317296762
  0.0512354079747723  0.4849736689285677  0.3673828944960604
  0.5087490926718914  0.4467315199911965  0.4035264200457860
  0.4760749364524060  0.4794646659640165  0.4019373035012777
  0.4526996519888797  0.4896437997866983  0.4622699629548990
  0.4679431721172378  0.5047439763708823  0.3363071677883411
  0.5489872604738011  0.9889670270669129  0.4959679405313722
  0.5169582059769269  0.9236183815006314  0.4961710578100593
  0.4528871732778086  0.8910197658014809  0.4802654644552646
  0.5509189401938031  0.8891722005520180  0.5146067528962490
  0.9194921513360939  0.4258801811091999  0.4947794895928936
  0.0180417176756649  0.4763715868871827  0.5561255026176539
  0.9529170645182177  0.4437283161685457  0.5549530721858176
  0.0511723626116876  0.4961758530778511  0.6225779161795728
  0.5196457564451933  0.4244591154442929  0.4635859966085576
  0.4620622219411814  0.4662913096613437  0.5231584648314893
  0.4956639143524626  0.4346123528582027  0.5227869857861478
  0.4352127498322673  0.4733491960740395  0.5881763743325692
  0.5193822148013680  0.0232497831880991  0.4802439146300941
  0.4220911369673814  0.9245355308651995  0.4642131144157418
  0.4557659663069558  0.9898554427520097  0.4644240681092739
  0.3540833777385259  0.8910620816983794  0.4453800355204436
  0.3180366973458106  0.6227661313990964  0.4792779682287005
  0.6533719318831501  0.2909828833558024  0.4804326686361691
  0.1314292709430589  0.4556755507194126  0.5463688787341994
  0.2460397470322633  0.5122167280213361  0.5403783712785923
  0.2421726829229129  0.6620544832352451  0.4334846922821640
  0.1276816131344063  0.6062712212947119  0.4421068769432424
  0.4028200179394830  0.6966221427629335  0.3898040867671781
  0.4612267908265650  0.8127793952519298  0.3902576970922453
  0.2808270064965015  0.5138861065814027  0.4148099525824449
  0.3386201264188244  0.4564831135729577  0.4079532000410140
  0.4901575781108676  0.6032355367845597  0.5178888939199808
  0.4317200968136135  0.6598524104260477  0.5271701745209256
  0.3074298291239614  0.6969459636399549  0.5694710560841472
  0.3659232975941435  0.8131043456481066  0.5699522147483123
  0.8451209261594599  0.4485208420145241  0.4139803909571071
  0.7300175560254658  0.3898068334473734  0.4073612285883357
  0.7236948856351901  0.2690949177752202  0.5663794358408296
  0.8388701206307303  0.3276613780909372  0.5728246026351513
  0.5370413658229864  0.2170982795324790  0.5243288324970408
  0.4794372848457655  0.1020329907075137  0.5238731404490196
  0.5658668341097339  0.2722070775101457  0.3897738592383746
  0.5082673537692770  0.3303860557019931  0.3819309904883141
  0.6119422343122309  0.4440612644087736  0.5496674613251713
  0.6696585301817990  0.3860272319369003  0.5572635266733528
  0.6954311306766670  0.2160547015272130  0.4362462909885494
  0.6378293416940224  0.1009961987915418  0.4366696562376760
  0.9279771996079660  0.4255313278610231  0.3875228726711555
  0.0193770685800985  0.4537538221482578  0.3288229817715447
  0.0688274353953773  0.5332845861294757  0.3501943657854767
  0.0916096741582280  0.4779492017494533  0.3701540220418238
  0.5279273081640383  0.4401331647574338  0.3570296852475465
  0.4977770214100445  0.5018804974187532  0.2975188758754896
  0.4195875923097816  0.4785801591660643  0.3183430933127056
  0.4794586320510064  0.5537529046484053  0.3410265130515242
  0.5980788559303818  0.0139128813500022  0.5101582973705945
  0.5965519781208783  0.9212189798879393  0.5364993437363381
  0.5242628136753069  0.8514775086812705  0.5506369754997920
  0.5587073859920295  0.8670592754616777  0.4706735919684988
  0.9275334258336514  0.4335833984999624  0.6021930086129217
  0.0920144885164191  0.5433066601204644  0.6201442486307371
  0.0197107530636060  0.4956551215594303  0.6615591661560387
  0.0680776396182026  0.4646489726411076  0.6389707218556921
  0.5020109688653847  0.4157763395880281  0.5696948128138999
  0.3867730498187996  0.4625325211357136  0.5819772749367118
  0.4364582792613803  0.4420981698257478  0.6264609856468155
  0.4611561310297461  0.5213695155723954  0.6076852262983081
  0.4321515252533743  0.0155083598984618  0.4501219887553205
  0.3431331048927149  0.8536324610407746  0.4089148244557492
  0.3239916856876377  0.8687688845089312  0.4890059539059450
  0.3409334927065615  0.9237539551990182  0.4237808518291004
 
  0.00000000E+00  0.00000000E+00  0.00000000E+00
  0.00000000E+00  0.00000000E+00  0.00000000E+00
  0.00000000E+00  0.00000000E+00  0.00000000E+00
  0.00000000E+00  0.00000000E+00  0.00000000E+00
  0.00000000E+00  0.00000000E+00  0.00000000E+00
  0.00000000E+00  0.00000000E+00  0.00000000E+00
  0.00000000E+00  0.00000000E+00  0.00000000E+00
  0.00000000E+00  0.00000000E+00  0.00000000E+00
  0.00000000E+00  0.00000000E+00  0.00000000E+00
  0.00000000E+00  0.00000000E+00  0.00000000E+00
  0.00000000E+00  0.00000000E+00  0.00000000E+00
  0.00000000E+00  0.00000000E+00  0.00000000E+00
  0.00000000E+00  0.00000000E+00  0.00000000E+00
  0.00000000E+00  0.00000000E+00  0.00000000E+00
  0.00000000E+00  0.00000000E+00  0.00000000E+00
  0.00000000E+00  0.00000000E+00  0.00000000E+00
  0.00000000E+00  0.00000000E+00  0.00000000E+00
  0.00000000E+00  0.00000000E+00  0.00000000E+00
  0.00000000E+00  0.00000000E+00  0.00000000E+00
  0.00000000E+00  0.00000000E+00  0.00000000E+00
  0.00000000E+00  0.00000000E+00  0.00000000E+00
  0.00000000E+00  0.00000000E+00  0.00000000E+00
  0.00000000E+00  0.00000000E+00  0.00000000E+00
  0.00000000E+00  0.00000000E+00  0.00000000E+00
  0.00000000E+00  0.00000000E+00  0.00000000E+00
  0.00000000E+00  0.00000000E+00  0.00000000E+00
  0.00000000E+00  0.00000000E+00  0.00000000E+00
  0.00000000E+00  0.00000000E+00  0.00000000E+00
  0.00000000E+00  0.00000000E+00  0.00000000E+00
  0.00000000E+00  0.00000000E+00  0.00000000E+00
  0.00000000E+00  0.00000000E+00  0.00000000E+00
  0.00000000E+00  0.00000000E+00  0.00000000E+00
  0.00000000E+00  0.00000000E+00  0.00000000E+00
  0.00000000E+00  0.00000000E+00  0.00000000E+00
  0.00000000E+00  0.00000000E+00  0.00000000E+00
  0.00000000E+00  0.00000000E+00  0.00000000E+00
  0.00000000E+00  0.00000000E+00  0.00000000E+00
  0.00000000E+00  0.00000000E+00  0.00000000E+00
  0.00000000E+00  0.00000000E+00  0.00000000E+00
  0.00000000E+00  0.00000000E+00  0.00000000E+00
  0.00000000E+00  0.00000000E+00  0.00000000E+00
  0.00000000E+00  0.00000000E+00  0.00000000E+00
  0.00000000E+00  0.00000000E+00  0.00000000E+00
  0.00000000E+00  0.00000000E+00  0.00000000E+00
  0.00000000E+00  0.00000000E+00  0.00000000E+00
  0.00000000E+00  0.00000000E+00  0.00000000E+00
  0.00000000E+00  0.00000000E+00  0.00000000E+00
  0.00000000E+00  0.00000000E+00  0.00000000E+00
  0.00000000E+00  0.00000000E+00  0.00000000E+00
  0.00000000E+00  0.00000000E+00  0.00000000E+00
  0.00000000E+00  0.00000000E+00  0.00000000E+00
  0.00000000E+00  0.00000000E+00  0.00000000E+00
  0.00000000E+00  0.00000000E+00  0.00000000E+00
  0.00000000E+00  0.00000000E+00  0.00000000E+00
  0.00000000E+00  0.00000000E+00  0.00000000E+00
  0.00000000E+00  0.00000000E+00  0.00000000E+00
  0.00000000E+00  0.00000000E+00  0.00000000E+00
  0.00000000E+00  0.00000000E+00  0.00000000E+00
  0.00000000E+00  0.00000000E+00  0.00000000E+00
  0.00000000E+00  0.00000000E+00  0.00000000E+00
  0.00000000E+00  0.00000000E+00  0.00000000E+00
  0.00000000E+00  0.00000000E+00  0.00000000E+00
  0.00000000E+00  0.00000000E+00  0.00000000E+00
  0.00000000E+00  0.00000000E+00  0.00000000E+00
  0.00000000E+00  0.00000000E+00  0.00000000E+00
  0.00000000E+00  0.00000000E+00  0.00000000E+00
  0.00000000E+00  0.00000000E+00  0.00000000E+00
  0.00000000E+00  0.00000000E+00  0.00000000E+00
  0.00000000E+00  0.00000000E+00  0.00000000E+00
  0.00000000E+00  0.00000000E+00  0.00000000E+00
  0.00000000E+00  0.00000000E+00  0.00000000E+00
  0.00000000E+00  0.00000000E+00  0.00000000E+00
  0.00000000E+00  0.00000000E+00  0.00000000E+00
  0.00000000E+00  0.00000000E+00  0.00000000E+00
  0.00000000E+00  0.00000000E+00  0.00000000E+00
  0.00000000E+00  0.00000000E+00  0.00000000E+00
  0.00000000E+00  0.00000000E+00  0.00000000E+00
  0.00000000E+00  0.00000000E+00  0.00000000E+00
  0.00000000E+00  0.00000000E+00  0.00000000E+00
  0.00000000E+00  0.00000000E+00  0.00000000E+00
  0.00000000E+00  0.00000000E+00  0.00000000E+00
  0.00000000E+00  0.00000000E+00  0.00000000E+00
  0.00000000E+00  0.00000000E+00  0.00000000E+00
  0.00000000E+00  0.00000000E+00  0.00000000E+00
  0.00000000E+00  0.00000000E+00  0.00000000E+00
  0.00000000E+00  0.00000000E+00  0.00000000E+00
  0.00000000E+00  0.00000000E+00  0.00000000E+00
  0.00000000E+00  0.00000000E+00  0.00000000E+00
  0.00000000E+00  0.00000000E+00  0.00000000E+00
  0.00000000E+00  0.00000000E+00  0.00000000E+00
  0.00000000E+00  0.00000000E+00  0.00000000E+00
  0.00000000E+00  0.00000000E+00  0.00000000E+00
  0.00000000E+00  0.00000000E+00  0.00000000E+00
  0.00000000E+00  0.00000000E+00  0.00000000E+00
  0.00000000E+00  0.00000000E+00  0.00000000E+00
  0.00000000E+00  0.00000000E+00  0.00000000E+00
  0.00000000E+00  0.00000000E+00  0.00000000E+00
  0.00000000E+00  0.00000000E+00  0.00000000E+00
  0.00000000E+00  0.00000000E+00  0.00000000E+00
  0.00000000E+00  0.00000000E+00  0.00000000E+00
  0.00000000E+00  0.00000000E+00  0.00000000E+00
  0.00000000E+00  0.00000000E+00  0.00000000E+00
  0.00000000E+00  0.00000000E+00  0.00000000E+00
  0.00000000E+00  0.00000000E+00  0.00000000E+00
  0.00000000E+00  0.00000000E+00  0.00000000E+00
  0.00000000E+00  0.00000000E+00  0.00000000E+00
  0.00000000E+00  0.00000000E+00  0.00000000E+00
  0.00000000E+00  0.00000000E+00  0.00000000E+00
  0.00000000E+00  0.00000000E+00  0.00000000E+00
  0.00000000E+00  0.00000000E+00  0.00000000E+00
