Primitive Cell                          
   1.00000000000000     
    29.7438428656855720   -0.0010635091276161    0.0000000000000000
    14.8710004086833365   25.7594552814027260    0.0000000000000000
     0.0000000000000000    0.0000000000000000   20.0000000000000000
   H    C    N 
    42    63     6
Direct
  0.9737482994922999  0.5180567685062272  0.3182292037778254
  0.9217392402367466  0.5736292698989587  0.3575610453719591
  0.9217567840041951  0.5144855359977925  0.3576204396155873
  0.8866681756738757  0.4893862900704562  0.4940557745731624
  0.7920202322023755  0.5363125372109039  0.4978614409570667
  0.8866477455411186  0.6340069347339963  0.4942386208970149
  0.7919887114814799  0.6816849711518316  0.4980406086213023
  0.6816849711518316  0.7919887114814799  0.4980406086213023
  0.6340069347339963  0.8866477455411186  0.4942386208970149
  0.5363125372109039  0.7920202322023755  0.4978614409570667
  0.4893862900704562  0.8866681756738757  0.4940557745731624
  0.5363080919935328  0.6816476837533898  0.4980430749805649
  0.4893466760998777  0.6339475983811980  0.4941389370572011
  0.6339475983811980  0.4893466760998777  0.4941389370572011
  0.6816476837533898  0.5363080919935328  0.4980430749805649
  0.7179998340964104  0.5739831012370473  0.4980899361235203
  0.7179983744629794  0.7179983744629794  0.4979053180090247
  0.5739831012370473  0.7179998340964104  0.4980899361235203
  0.1199602511847360  0.5173105819350781  0.4958886779387726
  0.2146770234874396  0.4703044359079485  0.4978159539250129
  0.1199367474243971  0.3727032247257966  0.4960171074843913
  0.2146455953547033  0.3249770851422866  0.4979180341471690
  0.3249770851422866  0.2146455953547033  0.4979180341471690
  0.3727032247257966  0.1199367474243971  0.4960171074843913
  0.4703044359079556  0.2146770234874396  0.4978159539250129
  0.5173105819350781  0.1199602511847360  0.4958886779387726
  0.4703056132475893  0.3249703106442610  0.4979083144107008
  0.5173032488780720  0.3726920654809405  0.4958242149926946
  0.3726920654809405  0.5173032488780720  0.4958242149926946
  0.3249703106442610  0.4703056132475893  0.4979083144107008
  0.2886530134794185  0.4326550288057547  0.4975178758488283
  0.2886429829677368  0.2886429829677368  0.4974510712034999
  0.4326550288057547  0.2886530134794185  0.4975178758488283
  0.4781760968143232  0.4781760968143232  0.3821911866892620
  0.5181568913437857  0.5181568913437857  0.3180928631086459
  0.5737070021733572  0.5145690770854259  0.3575390014200366
  0.5145690770854259  0.5737070021733572  0.3575390014200366
  0.4781061619470464  0.0536399129948748  0.3824476260945815
  0.5180567685062272  0.9737482994922999  0.3182292037778254
  0.5144855359977925  0.9217567840041951  0.3576204396155873
  0.5736292698989587  0.9217392402367466  0.3575610453719591
  0.0536399129948748  0.4781061619470464  0.3824476260945815
  0.9766952680564813  0.5166270518732503  0.4259307251496409
  0.9513421552948174  0.5293567437760132  0.4886622655783910
  0.9472379216651206  0.5313219023072975  0.3611964610560747
  0.7250923234014195  0.6424462459994800  0.4982191163266876
  0.6969135260460106  0.6161477212931530  0.4982995247515589
  0.6424393254619858  0.6424393254619858  0.4982835193089983
  0.6161477212931530  0.6969135260460106  0.4982995247515589
  0.6424462459994800  0.7250923234014195  0.4982191163266876
  0.6969158726634532  0.6969158726634532  0.4982077942402512
  0.6134987371388689  0.6134987371388689  0.4973768448208133
  0.6394106157430670  0.5588371806967487  0.4966938732254320
  0.6124793876484418  0.5317161798399113  0.4943916005424072
  0.5581525104404221  0.5581525104404221  0.4928488856352402
  0.5317161798399113  0.6124793876484418  0.4943916005424072
  0.5588371806967487  0.6394106157430670  0.4966938732254320
  0.7829662302341802  0.6135187187022950  0.4973001024686852
  0.8117158437776979  0.5588579827590294  0.4965808705995158
  0.8657614766758357  0.5317557185658757  0.4943367336173310
  0.8936338494168155  0.5582110341378268  0.4928874240098793
  0.8657503950760770  0.6125324250046944  0.4944406725282633
  0.8117036644452682  0.6394459986932262  0.4966798947264977
  0.6135187187022950  0.7829662302341802  0.4973001024686852
  0.6394459986932262  0.8117036644452682  0.4966798947264977
  0.6125324250046944  0.8657503950760770  0.4944406725282633
  0.5582110341378268  0.8936338494168155  0.4928874240098793
  0.5317557185658757  0.8657614766758357  0.4943367336173310
  0.5588579827590294  0.8117158437776979  0.4965808705995158
  0.2815362087744546  0.3642021660097612  0.4975870067333474
  0.3097271569418538  0.3904900825344058  0.4975743875742964
  0.3642018942272998  0.3642018942272998  0.4976072058925922
  0.3904900825344058  0.3097271569418538  0.4975743875742964
  0.3642021660097612  0.2815362087744546  0.4975870067333474
  0.3097252786892213  0.3097252786892213  0.4975451789674352
  0.3931430192484910  0.3931430192484910  0.4973969351447636
  0.3672108517178359  0.4478000403409013  0.4971793510135498
  0.3941302807275378  0.4749417952159121  0.4958633190303345
  0.4484531242722980  0.4484531242722980  0.4947181194168451
  0.4749417952159121  0.3941302807275378  0.4958633190303345
  0.4478000403409013  0.3672108517178359  0.4971793510135498
  0.2236552328462622  0.3931454689493634  0.4973931581440070
  0.1949353141432937  0.4478020352663918  0.4971724702134068
  0.1408727139260790  0.4749481724540559  0.4959616488056113
  0.1130159684980896  0.4484770102078031  0.4949427708589340
  0.1408555518290555  0.3941496473719823  0.4960212448156014
  0.1949192494549976  0.3672214980822162  0.4972286433633855
  0.3931454689493634  0.2236552328462622  0.4973931581440070
  0.3672214980822162  0.1949192494549976  0.4972286433633855
  0.3941496473719823  0.1408555518290555  0.4960212448156014
  0.4484770102078031  0.1130159684980896  0.4949427708589340
  0.4749481724540559  0.1408727139260790  0.4959616488056113
  0.4478020352663918  0.1949353141432937  0.4971724702134068
  0.4772856118549242  0.4772856118549242  0.4904167692210279
  0.4896884821625349  0.4896884821625349  0.4280548090429761
  0.5166360360919384  0.5166360360919384  0.4257862468185607
  0.5292923858099385  0.5292923858099385  0.4885384527859529
  0.5313942025196852  0.5313942025196852  0.3610933824814850
  0.4773297063172848  0.0553441670058277  0.4906922534855553
  0.4896707309277915  0.0305779121431087  0.4282879986006876
  0.5166270518732503  0.9766952680564813  0.4259307251496409
  0.5293567437760132  0.9513421552948174  0.4886622655783910
  0.5313219023072975  0.9472379216651206  0.3611964610560747
  0.0553441670058277  0.4773297063172848  0.4906922534855553
  0.0305779121431087  0.4896707309277915  0.4282879986006876
  0.9769109195421350  0.5166212618270194  0.5473111228602292
  0.5164723020817306  0.5164723020817306  0.5471557769364637
  0.4905529315206891  0.4905529315206891  0.5484546315140477
  0.5166212618270194  0.9769109195421350  0.5473111228602292
  0.4906938223969703  0.0287615519824485  0.5487026382243769
  0.0287615519824485  0.4906938223969703  0.5487026382243769
 
  0.00000000E+00  0.00000000E+00  0.00000000E+00
  0.00000000E+00  0.00000000E+00  0.00000000E+00
  0.00000000E+00  0.00000000E+00  0.00000000E+00
  0.00000000E+00  0.00000000E+00  0.00000000E+00
  0.00000000E+00  0.00000000E+00  0.00000000E+00
  0.00000000E+00  0.00000000E+00  0.00000000E+00
  0.00000000E+00  0.00000000E+00  0.00000000E+00
  0.00000000E+00  0.00000000E+00  0.00000000E+00
  0.00000000E+00  0.00000000E+00  0.00000000E+00
  0.00000000E+00  0.00000000E+00  0.00000000E+00
  0.00000000E+00  0.00000000E+00  0.00000000E+00
  0.00000000E+00  0.00000000E+00  0.00000000E+00
  0.00000000E+00  0.00000000E+00  0.00000000E+00
  0.00000000E+00  0.00000000E+00  0.00000000E+00
  0.00000000E+00  0.00000000E+00  0.00000000E+00
  0.00000000E+00  0.00000000E+00  0.00000000E+00
  0.00000000E+00  0.00000000E+00  0.00000000E+00
  0.00000000E+00  0.00000000E+00  0.00000000E+00
  0.00000000E+00  0.00000000E+00  0.00000000E+00
  0.00000000E+00  0.00000000E+00  0.00000000E+00
  0.00000000E+00  0.00000000E+00  0.00000000E+00
  0.00000000E+00  0.00000000E+00  0.00000000E+00
  0.00000000E+00  0.00000000E+00  0.00000000E+00
  0.00000000E+00  0.00000000E+00  0.00000000E+00
  0.00000000E+00  0.00000000E+00  0.00000000E+00
  0.00000000E+00  0.00000000E+00  0.00000000E+00
  0.00000000E+00  0.00000000E+00  0.00000000E+00
  0.00000000E+00  0.00000000E+00  0.00000000E+00
  0.00000000E+00  0.00000000E+00  0.00000000E+00
  0.00000000E+00  0.00000000E+00  0.00000000E+00
  0.00000000E+00  0.00000000E+00  0.00000000E+00
  0.00000000E+00  0.00000000E+00  0.00000000E+00
  0.00000000E+00  0.00000000E+00  0.00000000E+00
  0.00000000E+00  0.00000000E+00  0.00000000E+00
  0.00000000E+00  0.00000000E+00  0.00000000E+00
  0.00000000E+00  0.00000000E+00  0.00000000E+00
  0.00000000E+00  0.00000000E+00  0.00000000E+00
  0.00000000E+00  0.00000000E+00  0.00000000E+00
  0.00000000E+00  0.00000000E+00  0.00000000E+00
  0.00000000E+00  0.00000000E+00  0.00000000E+00
  0.00000000E+00  0.00000000E+00  0.00000000E+00
  0.00000000E+00  0.00000000E+00  0.00000000E+00
  0.00000000E+00  0.00000000E+00  0.00000000E+00
  0.00000000E+00  0.00000000E+00  0.00000000E+00
  0.00000000E+00  0.00000000E+00  0.00000000E+00
  0.00000000E+00  0.00000000E+00  0.00000000E+00
  0.00000000E+00  0.00000000E+00  0.00000000E+00
  0.00000000E+00  0.00000000E+00  0.00000000E+00
  0.00000000E+00  0.00000000E+00  0.00000000E+00
  0.00000000E+00  0.00000000E+00  0.00000000E+00
  0.00000000E+00  0.00000000E+00  0.00000000E+00
  0.00000000E+00  0.00000000E+00  0.00000000E+00
  0.00000000E+00  0.00000000E+00  0.00000000E+00
  0.00000000E+00  0.00000000E+00  0.00000000E+00
  0.00000000E+00  0.00000000E+00  0.00000000E+00
  0.00000000E+00  0.00000000E+00  0.00000000E+00
  0.00000000E+00  0.00000000E+00  0.00000000E+00
  0.00000000E+00  0.00000000E+00  0.00000000E+00
  0.00000000E+00  0.00000000E+00  0.00000000E+00
  0.00000000E+00  0.00000000E+00  0.00000000E+00
  0.00000000E+00  0.00000000E+00  0.00000000E+00
  0.00000000E+00  0.00000000E+00  0.00000000E+00
  0.00000000E+00  0.00000000E+00  0.00000000E+00
  0.00000000E+00  0.00000000E+00  0.00000000E+00
  0.00000000E+00  0.00000000E+00  0.00000000E+00
  0.00000000E+00  0.00000000E+00  0.00000000E+00
  0.00000000E+00  0.00000000E+00  0.00000000E+00
  0.00000000E+00  0.00000000E+00  0.00000000E+00
  0.00000000E+00  0.00000000E+00  0.00000000E+00
  0.00000000E+00  0.00000000E+00  0.00000000E+00
  0.00000000E+00  0.00000000E+00  0.00000000E+00
  0.00000000E+00  0.00000000E+00  0.00000000E+00
  0.00000000E+00  0.00000000E+00  0.00000000E+00
  0.00000000E+00  0.00000000E+00  0.00000000E+00
  0.00000000E+00  0.00000000E+00  0.00000000E+00
  0.00000000E+00  0.00000000E+00  0.00000000E+00
  0.00000000E+00  0.00000000E+00  0.00000000E+00
  0.00000000E+00  0.00000000E+00  0.00000000E+00
  0.00000000E+00  0.00000000E+00  0.00000000E+00
  0.00000000E+00  0.00000000E+00  0.00000000E+00
  0.00000000E+00  0.00000000E+00  0.00000000E+00
  0.00000000E+00  0.00000000E+00  0.00000000E+00
  0.00000000E+00  0.00000000E+00  0.00000000E+00
  0.00000000E+00  0.00000000E+00  0.00000000E+00
  0.00000000E+00  0.00000000E+00  0.00000000E+00
  0.00000000E+00  0.00000000E+00  0.00000000E+00
  0.00000000E+00  0.00000000E+00  0.00000000E+00
  0.00000000E+00  0.00000000E+00  0.00000000E+00
  0.00000000E+00  0.00000000E+00  0.00000000E+00
  0.00000000E+00  0.00000000E+00  0.00000000E+00
  0.00000000E+00  0.00000000E+00  0.00000000E+00
  0.00000000E+00  0.00000000E+00  0.00000000E+00
  0.00000000E+00  0.00000000E+00  0.00000000E+00
  0.00000000E+00  0.00000000E+00  0.00000000E+00
  0.00000000E+00  0.00000000E+00  0.00000000E+00
  0.00000000E+00  0.00000000E+00  0.00000000E+00
  0.00000000E+00  0.00000000E+00  0.00000000E+00
  0.00000000E+00  0.00000000E+00  0.00000000E+00
  0.00000000E+00  0.00000000E+00  0.00000000E+00
  0.00000000E+00  0.00000000E+00  0.00000000E+00
  0.00000000E+00  0.00000000E+00  0.00000000E+00
  0.00000000E+00  0.00000000E+00  0.00000000E+00
  0.00000000E+00  0.00000000E+00  0.00000000E+00
  0.00000000E+00  0.00000000E+00  0.00000000E+00
  0.00000000E+00  0.00000000E+00  0.00000000E+00
  0.00000000E+00  0.00000000E+00  0.00000000E+00
  0.00000000E+00  0.00000000E+00  0.00000000E+00
  0.00000000E+00  0.00000000E+00  0.00000000E+00
  0.00000000E+00  0.00000000E+00  0.00000000E+00
  0.00000000E+00  0.00000000E+00  0.00000000E+00
  0.00000000E+00  0.00000000E+00  0.00000000E+00
