Primitive Cell                          
   1.00000000000000     
    29.9035201075023451   -0.0027017612768162    0.0000000000000000
   -14.9540001447838300   25.8868470767875323    0.0000000000000000
     0.0000000000000000    0.0000000000000000   20.0000000000000000
   C    H 
    72    54
Direct
  0.1496222661227975  0.6035242877274669  0.4753818092543085
  0.1220319303181796  0.5593394150639668  0.5154081184632773
  0.1504629200959897  0.5428610790219608  0.5538178154203450
  0.0647245422713567  0.5306818602572747  0.5150865504893218
  0.0350778212817175  0.5192519631205315  0.5742135566793678
  0.0590012505010762  0.5365226959188192  0.6425612909043679
  0.0390924192531301  0.5146263302737921  0.4534179706081218
  0.2034219783518481  0.6305108178383705  0.4743780937886015
  0.2042378183427260  0.5694663878373305  0.5522867359935049
  0.2889828229135389  0.6426449472107976  0.5120940448475579
  0.3165408269299874  0.6968484338979408  0.5120735585520677
  0.3707321887458690  0.7245693807660558  0.5121327030293088
  0.3973669106202138  0.6970263536699051  0.5120658492788124
  0.3708716915412964  0.6428245229072687  0.5120737677668643
  0.3166838180650871  0.6161655566328079  0.5120152716778037
  0.3992627511454216  0.7817495103032925  0.5128783023355936
  0.3824112495423080  0.8093014353599557  0.5525396502249791
  0.4095865102489924  0.8630884839433435  0.5540951374361995
  0.4543986356403096  0.8915605817185011  0.5155059953335837
  0.4709033596838736  0.8640008811948476  0.4752969817272259
  0.4440915453532241  0.8101862039688825  0.4742900445505072
  0.2318182428880391  0.6139905960296872  0.5128100377268439
  0.3995021140318045  0.6142974482927528  0.5127909722463713
  0.3831101729826827  0.5694754076121882  0.4741608735404839
  0.4100941784466627  0.5426672417112002  0.4751912400910712
  0.4541349230788683  0.5591746263706838  0.5154514660305978
  0.4704804526072977  0.6039812909529303  0.5540668744221122
  0.4438845153073459  0.6311469561224783  0.5524979808417925
  0.7314145055529693  0.3641874908894707  0.5086704895768932
  0.7038570123992187  0.3099871366908005  0.5086668677129111
  0.6496726964196284  0.2822723569203660  0.5086745923347706
  0.6230434970566421  0.3098195711408920  0.5087369809873366
  0.6495378660816513  0.3640244340306822  0.5087176020995301
  0.7037252901631632  0.3906784687003224  0.5087469582548394
  0.6211507771819171  0.2250998892084581  0.5081242170893674
  0.6379771892698756  0.1974714197245646  0.4685830791010730
  0.6108329102152581  0.1436813882726256  0.4672812806446771
  0.5660659523085982  0.1152882283972261  0.5059810130721587
  0.5495841393167069  0.1429266118725963  0.5460674507698116
  0.5763818662588491  0.1967444333911033  0.5468518263316184
  0.7885807144822792  0.3928181034030587  0.5081009256768070
  0.8168913555796209  0.3762536535006618  0.5466394768858720
  0.8706891499998335  0.4032161409902741  0.5458149772475664
  0.8983604533870775  0.4474343190002870  0.5058802615598452
  0.8700188632128203  0.4639529375874147  0.4673538792418270
  0.8162460585585691  0.4373656695463026  0.4686969840587025
  0.6208864129386740  0.3925254091927854  0.5081612441100276
  0.6373066850286264  0.4373154049608416  0.5468674431910969
  0.6102771404563470  0.4640813791006906  0.5460682883262180
  0.5661486931709376  0.4475571538608349  0.5059847608461467
  0.5497788733345885  0.4027810277649237  0.4672881728177174
  0.5764245698192454  0.3756613757837712  0.4686158782622201
  0.4830459564551148  0.9488788817087652  0.5151922841082097
  0.5014381763562525  0.9785351032233720  0.5742884055144231
  0.5280354524842821  0.0323388127968727  0.5680543397083753
  0.4950343807768078  0.9546017962775082  0.6425822359906519
  0.4827953111727297  0.5305415338221167  0.5151675725739651
  0.4941113740914389  0.5122170509875801  0.5742770775245418
  0.5212975950344259  0.4856253987550332  0.5680483758331434
  0.4766626554698945  0.5186920972876692  0.6425837771980767
  0.9812896739029142  0.4920973636879964  0.5679648521600100
  0.5374265955023887  0.0579723871410920  0.5063986432171959
  0.5190359495802710  0.0283151127258634  0.4473021637537329
  0.4924415745461275  0.9745185525513520  0.4535444408189164
  0.5254157380665347  0.0522166839583207  0.3789909826009534
  0.5374807625600937  0.4761787528356649  0.5063967230053876
  0.5261828873588001  0.4945197078133532  0.4472815760124433
  0.4989938810196293  0.5211054131423225  0.4535205854801987
  0.5436807635754448  0.4881094857535686  0.3789661198678118
  0.9556607946794600  0.4760573162895696  0.5062879158306828
  0.9853111030807042  0.4874703206952944  0.4471685622758272
  0.9614012435428378  0.4701507492580745  0.3788253523939531
  0.1283064355643475  0.6169453684856947  0.4450195978897256
  0.1300366325363953  0.5083472490597671  0.5847600676415112
  0.0956439943303167  0.5732799902462133  0.6403912309226882
  0.0326337433409662  0.5412973783586210  0.6761570170104250
  0.0673219128165883  0.5081122666734572  0.6659157043286257
  0.0625032740597860  0.5226914824757216  0.4082780196042748
  0.2238356775464183  0.6645245050561854  0.4425125310408760
  0.2253522919097932  0.5560842978535945  0.5830993763446912
  0.3492125505644523  0.5559574664733731  0.4421228534915258
  0.3967816124418349  0.5080044858524388  0.4446817437993502
  0.4571498668626006  0.6655674871342612  0.5834652194591499
  0.5048688655608302  0.6179839326117786  0.5852133722266188
  0.4576173434936734  0.7897917893513835  0.4422983878080942
  0.5055695346366349  0.8853562688291490  0.4448039811929902
  0.3955776418603989  0.8834811725270413  0.5852113250471973
  0.3479785029795011  0.7881422442026036  0.5834710918190069
  0.2954140879474636  0.7178645883800030  0.5122408893693233
  0.2956759803138453  0.5740044937828017  0.5121675813453805
  0.4395133480135982  0.7181759497227347  0.5122533636242892
  0.8919406966150234  0.3897389982265196  0.5762071591685114
  0.7964077255714841  0.3422123072545915  0.5784349720151241
  0.8905104597341875  0.4984590664156130  0.4364227555843385
  0.7952077455465130  0.4507792145625444  0.4377834336473256
  0.6712808730445587  0.4508527897829566  0.5787676406859177
  0.6236222548722878  0.4987320340708479  0.5766064763328345
  0.5631307291970558  0.3412672961866363  0.4375859030373377
  0.5153383391337414  0.3887713049804802  0.4362444320698415
  0.5628925889700369  0.2172122578296225  0.5787683972771305
  0.5149466038416932  0.1216429083498340  0.5766272240292309
  0.6248212810700551  0.1232230722626184  0.4362545431453668
  0.6723589904205625  0.2185638723962242  0.4375416729916211
  0.7249924780956505  0.2889824605763565  0.5084554542377688
  0.7247393997890441  0.4328373114940476  0.5086308687177450
  0.5808915026259172  0.2886660042237139  0.5085985778794111
  0.5434820895265275  0.0557554463354251  0.6131899304975761
  0.4951369971968447  0.9179633134884781  0.6402466154660473
  0.5263142584714799  0.9809798073796898  0.6760221079819928
  0.4583932527124048  0.9462560336009673  0.6662289567851261
  0.5292970273856312  0.4702213634498307  0.6131888512985739
  0.4399853152634847  0.5187091188970570  0.6402841502120751
  0.4716633848738425  0.4873735953401166  0.6760284015188560
  0.5050589102345668  0.5553174957605478  0.6662271328575997
  0.9578785088198032  0.4840041571299807  0.6131185723841455
  0.4769862210155509  0.9510947584497913  0.4084208821159550
  0.5252516813279513  0.0888282898282995  0.3812928589647271
  0.5620830584618517  0.0606223606320953  0.3553566007697526
  0.4941657189882562  0.0257890446806925  0.3455372472794949
  0.4910154978812642  0.5365355818018145  0.4083883544432894
  0.5804312537349219  0.4882496354389403  0.3812685469678669
  0.5153758980918397  0.4514450811091919  0.3553420416324968
  0.5485505949311218  0.5193717596227359  0.3455191688968071
  0.9247424529749253  0.4334039423701341  0.3810154920464015
  0.9531008870375217  0.4985450163832468  0.3553745181588539
  0.9877676280020893  0.4653306622442059  0.3452794542086082
 
  0.00000000E+00  0.00000000E+00  0.00000000E+00
  0.00000000E+00  0.00000000E+00  0.00000000E+00
  0.00000000E+00  0.00000000E+00  0.00000000E+00
  0.00000000E+00  0.00000000E+00  0.00000000E+00
  0.00000000E+00  0.00000000E+00  0.00000000E+00
  0.00000000E+00  0.00000000E+00  0.00000000E+00
  0.00000000E+00  0.00000000E+00  0.00000000E+00
  0.00000000E+00  0.00000000E+00  0.00000000E+00
  0.00000000E+00  0.00000000E+00  0.00000000E+00
  0.00000000E+00  0.00000000E+00  0.00000000E+00
  0.00000000E+00  0.00000000E+00  0.00000000E+00
  0.00000000E+00  0.00000000E+00  0.00000000E+00
  0.00000000E+00  0.00000000E+00  0.00000000E+00
  0.00000000E+00  0.00000000E+00  0.00000000E+00
  0.00000000E+00  0.00000000E+00  0.00000000E+00
  0.00000000E+00  0.00000000E+00  0.00000000E+00
  0.00000000E+00  0.00000000E+00  0.00000000E+00
  0.00000000E+00  0.00000000E+00  0.00000000E+00
  0.00000000E+00  0.00000000E+00  0.00000000E+00
  0.00000000E+00  0.00000000E+00  0.00000000E+00
  0.00000000E+00  0.00000000E+00  0.00000000E+00
  0.00000000E+00  0.00000000E+00  0.00000000E+00
  0.00000000E+00  0.00000000E+00  0.00000000E+00
  0.00000000E+00  0.00000000E+00  0.00000000E+00
  0.00000000E+00  0.00000000E+00  0.00000000E+00
  0.00000000E+00  0.00000000E+00  0.00000000E+00
  0.00000000E+00  0.00000000E+00  0.00000000E+00
  0.00000000E+00  0.00000000E+00  0.00000000E+00
  0.00000000E+00  0.00000000E+00  0.00000000E+00
  0.00000000E+00  0.00000000E+00  0.00000000E+00
  0.00000000E+00  0.00000000E+00  0.00000000E+00
  0.00000000E+00  0.00000000E+00  0.00000000E+00
  0.00000000E+00  0.00000000E+00  0.00000000E+00
  0.00000000E+00  0.00000000E+00  0.00000000E+00
  0.00000000E+00  0.00000000E+00  0.00000000E+00
  0.00000000E+00  0.00000000E+00  0.00000000E+00
  0.00000000E+00  0.00000000E+00  0.00000000E+00
  0.00000000E+00  0.00000000E+00  0.00000000E+00
  0.00000000E+00  0.00000000E+00  0.00000000E+00
  0.00000000E+00  0.00000000E+00  0.00000000E+00
  0.00000000E+00  0.00000000E+00  0.00000000E+00
  0.00000000E+00  0.00000000E+00  0.00000000E+00
  0.00000000E+00  0.00000000E+00  0.00000000E+00
  0.00000000E+00  0.00000000E+00  0.00000000E+00
  0.00000000E+00  0.00000000E+00  0.00000000E+00
  0.00000000E+00  0.00000000E+00  0.00000000E+00
  0.00000000E+00  0.00000000E+00  0.00000000E+00
  0.00000000E+00  0.00000000E+00  0.00000000E+00
  0.00000000E+00  0.00000000E+00  0.00000000E+00
  0.00000000E+00  0.00000000E+00  0.00000000E+00
  0.00000000E+00  0.00000000E+00  0.00000000E+00
  0.00000000E+00  0.00000000E+00  0.00000000E+00
  0.00000000E+00  0.00000000E+00  0.00000000E+00
  0.00000000E+00  0.00000000E+00  0.00000000E+00
  0.00000000E+00  0.00000000E+00  0.00000000E+00
  0.00000000E+00  0.00000000E+00  0.00000000E+00
  0.00000000E+00  0.00000000E+00  0.00000000E+00
  0.00000000E+00  0.00000000E+00  0.00000000E+00
  0.00000000E+00  0.00000000E+00  0.00000000E+00
  0.00000000E+00  0.00000000E+00  0.00000000E+00
  0.00000000E+00  0.00000000E+00  0.00000000E+00
  0.00000000E+00  0.00000000E+00  0.00000000E+00
  0.00000000E+00  0.00000000E+00  0.00000000E+00
  0.00000000E+00  0.00000000E+00  0.00000000E+00
  0.00000000E+00  0.00000000E+00  0.00000000E+00
  0.00000000E+00  0.00000000E+00  0.00000000E+00
  0.00000000E+00  0.00000000E+00  0.00000000E+00
  0.00000000E+00  0.00000000E+00  0.00000000E+00
  0.00000000E+00  0.00000000E+00  0.00000000E+00
  0.00000000E+00  0.00000000E+00  0.00000000E+00
  0.00000000E+00  0.00000000E+00  0.00000000E+00
  0.00000000E+00  0.00000000E+00  0.00000000E+00
  0.00000000E+00  0.00000000E+00  0.00000000E+00
  0.00000000E+00  0.00000000E+00  0.00000000E+00
  0.00000000E+00  0.00000000E+00  0.00000000E+00
  0.00000000E+00  0.00000000E+00  0.00000000E+00
  0.00000000E+00  0.00000000E+00  0.00000000E+00
  0.00000000E+00  0.00000000E+00  0.00000000E+00
  0.00000000E+00  0.00000000E+00  0.00000000E+00
  0.00000000E+00  0.00000000E+00  0.00000000E+00
  0.00000000E+00  0.00000000E+00  0.00000000E+00
  0.00000000E+00  0.00000000E+00  0.00000000E+00
  0.00000000E+00  0.00000000E+00  0.00000000E+00
  0.00000000E+00  0.00000000E+00  0.00000000E+00
  0.00000000E+00  0.00000000E+00  0.00000000E+00
  0.00000000E+00  0.00000000E+00  0.00000000E+00
  0.00000000E+00  0.00000000E+00  0.00000000E+00
  0.00000000E+00  0.00000000E+00  0.00000000E+00
  0.00000000E+00  0.00000000E+00  0.00000000E+00
  0.00000000E+00  0.00000000E+00  0.00000000E+00
  0.00000000E+00  0.00000000E+00  0.00000000E+00
  0.00000000E+00  0.00000000E+00  0.00000000E+00
  0.00000000E+00  0.00000000E+00  0.00000000E+00
  0.00000000E+00  0.00000000E+00  0.00000000E+00
  0.00000000E+00  0.00000000E+00  0.00000000E+00
  0.00000000E+00  0.00000000E+00  0.00000000E+00
  0.00000000E+00  0.00000000E+00  0.00000000E+00
  0.00000000E+00  0.00000000E+00  0.00000000E+00
  0.00000000E+00  0.00000000E+00  0.00000000E+00
  0.00000000E+00  0.00000000E+00  0.00000000E+00
  0.00000000E+00  0.00000000E+00  0.00000000E+00
  0.00000000E+00  0.00000000E+00  0.00000000E+00
  0.00000000E+00  0.00000000E+00  0.00000000E+00
  0.00000000E+00  0.00000000E+00  0.00000000E+00
  0.00000000E+00  0.00000000E+00  0.00000000E+00
  0.00000000E+00  0.00000000E+00  0.00000000E+00
  0.00000000E+00  0.00000000E+00  0.00000000E+00
  0.00000000E+00  0.00000000E+00  0.00000000E+00
  0.00000000E+00  0.00000000E+00  0.00000000E+00
  0.00000000E+00  0.00000000E+00  0.00000000E+00
  0.00000000E+00  0.00000000E+00  0.00000000E+00
  0.00000000E+00  0.00000000E+00  0.00000000E+00
  0.00000000E+00  0.00000000E+00  0.00000000E+00
  0.00000000E+00  0.00000000E+00  0.00000000E+00
  0.00000000E+00  0.00000000E+00  0.00000000E+00
  0.00000000E+00  0.00000000E+00  0.00000000E+00
  0.00000000E+00  0.00000000E+00  0.00000000E+00
  0.00000000E+00  0.00000000E+00  0.00000000E+00
  0.00000000E+00  0.00000000E+00  0.00000000E+00
  0.00000000E+00  0.00000000E+00  0.00000000E+00
  0.00000000E+00  0.00000000E+00  0.00000000E+00
  0.00000000E+00  0.00000000E+00  0.00000000E+00
  0.00000000E+00  0.00000000E+00  0.00000000E+00
  0.00000000E+00  0.00000000E+00  0.00000000E+00
  0.00000000E+00  0.00000000E+00  0.00000000E+00
  0.00000000E+00  0.00000000E+00  0.00000000E+00
