Primitive Cell                          
   1.00000000000000     
    25.6039377095533602   -0.0506071502874790    0.0000000000000000
    -0.0672035014338913   25.5954854243840551    0.0000000000000000
     0.0000000000000000    0.0000000000000000   20.0000000000000000
   N    C    H 
     8    64    46
Direct
  0.9887347226150069  0.5963300096645909  0.4655391690892330
  0.3768447050718677  0.9857546212027586  0.4657911356034674
  0.0419123135581216  0.0484769080595413  0.5031383878411617
  0.9274712861589904  0.0395533044875478  0.5007392807828595
  0.9316246256868510  0.9250515174610143  0.4993053978211464
  0.0460288138711817  0.9340304751252475  0.5017308793604514
  0.9940937468783986  0.3772873778049970  0.4724115051038638
  0.5959428564891383  0.9915057320310439  0.4681855612114703
  0.2100891001477123  0.9793099411810857  0.4515942617984052
  0.2642641753483375  0.9818102241806770  0.4526651269622306
  0.9808251089495315  0.7628578502787917  0.4484277448819682
  0.9838941663945988  0.7087178083595944  0.4503679181009232
  0.7086381512583202  0.9937131524407121  0.4497772595513823
  0.7628145152053420  0.9966454168969747  0.4481806373586252
  0.9977603232872454  0.2105433579250899  0.4532144514077956
  0.9954651236515417  0.2647323048089092  0.4547327250404791
  0.9886432400112497  0.5125138497223816  0.4122320529119818
  0.9904967813003509  0.4582376313112846  0.4131535070136394
  0.9894209925371484  0.4273704461107783  0.3491618764886795
  0.4599614114437074  0.9850665831080647  0.4108492912778559
  0.5142371819210538  0.9870625697071773  0.4106069623656978
  0.5442067194934452  0.9855614430162589  0.3459649203070256
  0.9906788833140752  0.5419439607345140  0.4715426393883249
  0.4313029302736453  0.9876349161329330  0.4706992913722203
  0.0779191116618776  0.1289667985165295  0.5075602962826053
  0.1178590186104316  0.0933726327617777  0.5070759295252785
  0.0952589483307520  0.0420243370059978  0.5050476127700279
  0.0294367751831075  0.1007336113381498  0.5042705491173578
  0.9788488532115451  0.1220516075787259  0.5032675298952967
  0.9317571478852642  0.0929983746134866  0.5013997795517042
  0.8748237566873271  0.0293287034242553  0.4996033138729814
  0.8449040519261644  0.0776810629148201  0.4997654542355932
  0.8803683346569642  0.1173280550178077  0.4996291482360817
  0.8513040946428774  0.9792288411754413  0.4992516697140488
  0.8782775856141214  0.9314230312034582  0.4987070238776852
  0.9441741905099974  0.8727992016626018  0.4989633308669070
  0.8957391575060711  0.8444236946380670  0.4978281887868050
  0.8557721846517481  0.8799841994873603  0.4968191921639473
  0.9947302207812356  0.8515867570017335  0.5007399700128161
  0.0417834972055644  0.8806146970743853  0.5017638635895949
  0.0986491887035399  0.9442208289593168  0.5028417294340812
  0.1286211249297153  0.8958977934548216  0.5036935420988300
  0.0931819327071324  0.8562420016269172  0.5022244750025848
  0.1221639008986060  0.9942491783507705  0.5045364138370445
  0.1802758264892859  0.9973780977803841  0.5060450069829798
  0.2906067419508815  0.0031051520022132  0.5082276157285435
  0.2609406189161518  0.0215651403514769  0.5623833461082555
  0.2066054048081369  0.0184523027375647  0.5615116793123889
  0.9982127114009529  0.7935100082126922  0.5026083814379376
  0.0050356916866434  0.6833244804309189  0.5065962679468683
  0.0227758877946087  0.7138699585108697  0.5605022298958957
  0.0190810144796174  0.7681162980430898  0.5587710398287555
  0.7932066925661516  0.9757752649896148  0.5004366413207748
  0.7673753952998865  0.9511213395174636  0.5539110242901657
  0.7131184972824300  0.9470266033410724  0.5548347725323524
  0.6829411251549402  0.9686945471402879  0.5032119619320028
  0.9755686501082934  0.1801359197941821  0.5047776257718937
  0.9503437947805864  0.2060133484667119  0.5575795852841878
  0.9698830462233516  0.2904791346911395  0.5074899531565791
  0.9469533714826426  0.2603147680141262  0.5584328148106295
  0.0089894658728511  0.6264688797292806  0.5101531093491261
  0.6259722840617528  0.9645822005301454  0.5062539621384019
  0.9663573383725463  0.3474927066840010  0.5101618693456516
  0.3475476359119227  0.0065244786019960  0.5107345974395585
  0.9919009482503256  0.4316926561689769  0.4755876105365999
  0.9939525281154644  0.4606564849771928  0.5362703721756432
  0.9933795518243116  0.5151174720333316  0.5328093167961256
  0.9988564315203377  0.4351855639901885  0.6041233603435430
  0.5415803529913390  0.9891456514669699  0.4724351497432338
  0.5133776512023047  0.9918217893660000  0.5336794817589521
  0.4589025147787282  0.9910468664837921  0.5313478896704638
  0.5396533663670340  0.9977945974970055  0.6009258695646125
  0.0126830095496615  0.2881860366060423  0.4148303826798099
  0.0165710687728122  0.1908269089592096  0.4113256239135126
  0.7824852276771708  0.0150207078493168  0.4058264709213333
  0.6851511212093868  0.0100277817181507  0.4094374091887332
  0.9652340882269712  0.7823221849164099  0.4042173484318070
  0.9705562778163284  0.6849614041819478  0.4084017894225980
  0.2873491827664623  0.9678006066793969  0.4105678922445009
  0.1899006540867489  0.9633797356860683  0.4080343259108901
  0.9864164675378646  0.5334639243610653  0.3647929550559468
  0.9937977204178026  0.4531563438839967  0.3056551641816725
  0.0208353471452725  0.3982056819698840  0.3486761669841556
  0.9526103860954365  0.4054068266294166  0.3436348053652551
  0.4384053242672366  0.9823102936983688  0.3638964872535269
  0.5178849245443473  0.9898613626652875  0.3030358853234461
  0.5737801798321840  0.0168402212560750  0.3445952821794691
  0.5655617270122235  0.9486115999929936  0.3402221148514570
  0.9269126661971896  0.2798461316383012  0.5996151161078132
  0.9333853704552482  0.1830574974514789  0.5981398637689850
  0.0813577523444309  0.1711465478543985  0.5100327847436503
  0.1594348373861294  0.1015392809672875  0.5081619448739971
  0.0153487233128686  0.0186414657449916  0.5015608982496218
  0.9581390437033477  0.9549384829898884  0.5006825676725981
  0.8725710638350961  0.1589405553497159  0.4982732111058397
  0.8026637922969257  0.0808480634574664  0.4997667043246423
  0.7903354052971210  0.9352581382810641  0.5950595848564433
  0.6936268858536181  0.9274835956641638  0.5965810292947680
  0.8142469948239039  0.8716967168903125  0.4947806304238966
  0.8924032151028030  0.8021833005230476  0.4976430085062731
  0.1708605093889730  0.8928699915622289  0.5052819299753963
  0.1009136321663675  0.8145997062011290  0.5014082275301277
  0.0323739723503920  0.7914093410958714  0.6012138263209934
  0.0391805652400876  0.6946454041652714  0.6044794009320071
  0.1840358457270028  0.0321326627254166  0.6042944557063876
  0.2808966047430559  0.0379668528630077  0.6059317253443126
  0.0309529932453430  0.6110512705251665  0.5535141131502641
  0.6104443467212590  0.9361532391563046  0.5428436900103861
  0.9375533046453057  0.3632570962373904  0.5459283760518332
  0.3637951722280661  0.0286517655655913  0.5535695439870381
  0.9941362618062755  0.5372324114884535  0.5795074507561964
  0.0210805457834624  0.3986149915635053  0.6018447825197484
  0.0189177662255773  0.4616957962897388  0.6389562310815364
  0.9605838094444508  0.4257999306525235  0.6262397265442559
  0.4373780637826883  0.9922569914137114  0.5784697784919928
  0.5762174785847947  0.0202625019627121  0.5974835374768830
  0.5136060190211040  0.0181334641957847  0.6358233582879578
  0.5492531604648505  0.9598926633593052  0.6237160719317743
 
  0.00000000E+00  0.00000000E+00  0.00000000E+00
  0.00000000E+00  0.00000000E+00  0.00000000E+00
  0.00000000E+00  0.00000000E+00  0.00000000E+00
  0.00000000E+00  0.00000000E+00  0.00000000E+00
  0.00000000E+00  0.00000000E+00  0.00000000E+00
  0.00000000E+00  0.00000000E+00  0.00000000E+00
  0.00000000E+00  0.00000000E+00  0.00000000E+00
  0.00000000E+00  0.00000000E+00  0.00000000E+00
  0.00000000E+00  0.00000000E+00  0.00000000E+00
  0.00000000E+00  0.00000000E+00  0.00000000E+00
  0.00000000E+00  0.00000000E+00  0.00000000E+00
  0.00000000E+00  0.00000000E+00  0.00000000E+00
  0.00000000E+00  0.00000000E+00  0.00000000E+00
  0.00000000E+00  0.00000000E+00  0.00000000E+00
  0.00000000E+00  0.00000000E+00  0.00000000E+00
  0.00000000E+00  0.00000000E+00  0.00000000E+00
  0.00000000E+00  0.00000000E+00  0.00000000E+00
  0.00000000E+00  0.00000000E+00  0.00000000E+00
  0.00000000E+00  0.00000000E+00  0.00000000E+00
  0.00000000E+00  0.00000000E+00  0.00000000E+00
  0.00000000E+00  0.00000000E+00  0.00000000E+00
  0.00000000E+00  0.00000000E+00  0.00000000E+00
  0.00000000E+00  0.00000000E+00  0.00000000E+00
  0.00000000E+00  0.00000000E+00  0.00000000E+00
  0.00000000E+00  0.00000000E+00  0.00000000E+00
  0.00000000E+00  0.00000000E+00  0.00000000E+00
  0.00000000E+00  0.00000000E+00  0.00000000E+00
  0.00000000E+00  0.00000000E+00  0.00000000E+00
  0.00000000E+00  0.00000000E+00  0.00000000E+00
  0.00000000E+00  0.00000000E+00  0.00000000E+00
  0.00000000E+00  0.00000000E+00  0.00000000E+00
  0.00000000E+00  0.00000000E+00  0.00000000E+00
  0.00000000E+00  0.00000000E+00  0.00000000E+00
  0.00000000E+00  0.00000000E+00  0.00000000E+00
  0.00000000E+00  0.00000000E+00  0.00000000E+00
  0.00000000E+00  0.00000000E+00  0.00000000E+00
  0.00000000E+00  0.00000000E+00  0.00000000E+00
  0.00000000E+00  0.00000000E+00  0.00000000E+00
  0.00000000E+00  0.00000000E+00  0.00000000E+00
  0.00000000E+00  0.00000000E+00  0.00000000E+00
  0.00000000E+00  0.00000000E+00  0.00000000E+00
  0.00000000E+00  0.00000000E+00  0.00000000E+00
  0.00000000E+00  0.00000000E+00  0.00000000E+00
  0.00000000E+00  0.00000000E+00  0.00000000E+00
  0.00000000E+00  0.00000000E+00  0.00000000E+00
  0.00000000E+00  0.00000000E+00  0.00000000E+00
  0.00000000E+00  0.00000000E+00  0.00000000E+00
  0.00000000E+00  0.00000000E+00  0.00000000E+00
  0.00000000E+00  0.00000000E+00  0.00000000E+00
  0.00000000E+00  0.00000000E+00  0.00000000E+00
  0.00000000E+00  0.00000000E+00  0.00000000E+00
  0.00000000E+00  0.00000000E+00  0.00000000E+00
  0.00000000E+00  0.00000000E+00  0.00000000E+00
  0.00000000E+00  0.00000000E+00  0.00000000E+00
  0.00000000E+00  0.00000000E+00  0.00000000E+00
  0.00000000E+00  0.00000000E+00  0.00000000E+00
  0.00000000E+00  0.00000000E+00  0.00000000E+00
  0.00000000E+00  0.00000000E+00  0.00000000E+00
  0.00000000E+00  0.00000000E+00  0.00000000E+00
  0.00000000E+00  0.00000000E+00  0.00000000E+00
  0.00000000E+00  0.00000000E+00  0.00000000E+00
  0.00000000E+00  0.00000000E+00  0.00000000E+00
  0.00000000E+00  0.00000000E+00  0.00000000E+00
  0.00000000E+00  0.00000000E+00  0.00000000E+00
  0.00000000E+00  0.00000000E+00  0.00000000E+00
  0.00000000E+00  0.00000000E+00  0.00000000E+00
  0.00000000E+00  0.00000000E+00  0.00000000E+00
  0.00000000E+00  0.00000000E+00  0.00000000E+00
  0.00000000E+00  0.00000000E+00  0.00000000E+00
  0.00000000E+00  0.00000000E+00  0.00000000E+00
  0.00000000E+00  0.00000000E+00  0.00000000E+00
  0.00000000E+00  0.00000000E+00  0.00000000E+00
  0.00000000E+00  0.00000000E+00  0.00000000E+00
  0.00000000E+00  0.00000000E+00  0.00000000E+00
  0.00000000E+00  0.00000000E+00  0.00000000E+00
  0.00000000E+00  0.00000000E+00  0.00000000E+00
  0.00000000E+00  0.00000000E+00  0.00000000E+00
  0.00000000E+00  0.00000000E+00  0.00000000E+00
  0.00000000E+00  0.00000000E+00  0.00000000E+00
  0.00000000E+00  0.00000000E+00  0.00000000E+00
  0.00000000E+00  0.00000000E+00  0.00000000E+00
  0.00000000E+00  0.00000000E+00  0.00000000E+00
  0.00000000E+00  0.00000000E+00  0.00000000E+00
  0.00000000E+00  0.00000000E+00  0.00000000E+00
  0.00000000E+00  0.00000000E+00  0.00000000E+00
  0.00000000E+00  0.00000000E+00  0.00000000E+00
  0.00000000E+00  0.00000000E+00  0.00000000E+00
  0.00000000E+00  0.00000000E+00  0.00000000E+00
  0.00000000E+00  0.00000000E+00  0.00000000E+00
  0.00000000E+00  0.00000000E+00  0.00000000E+00
  0.00000000E+00  0.00000000E+00  0.00000000E+00
  0.00000000E+00  0.00000000E+00  0.00000000E+00
  0.00000000E+00  0.00000000E+00  0.00000000E+00
  0.00000000E+00  0.00000000E+00  0.00000000E+00
  0.00000000E+00  0.00000000E+00  0.00000000E+00
  0.00000000E+00  0.00000000E+00  0.00000000E+00
  0.00000000E+00  0.00000000E+00  0.00000000E+00
  0.00000000E+00  0.00000000E+00  0.00000000E+00
  0.00000000E+00  0.00000000E+00  0.00000000E+00
  0.00000000E+00  0.00000000E+00  0.00000000E+00
  0.00000000E+00  0.00000000E+00  0.00000000E+00
  0.00000000E+00  0.00000000E+00  0.00000000E+00
  0.00000000E+00  0.00000000E+00  0.00000000E+00
  0.00000000E+00  0.00000000E+00  0.00000000E+00
  0.00000000E+00  0.00000000E+00  0.00000000E+00
  0.00000000E+00  0.00000000E+00  0.00000000E+00
  0.00000000E+00  0.00000000E+00  0.00000000E+00
  0.00000000E+00  0.00000000E+00  0.00000000E+00
  0.00000000E+00  0.00000000E+00  0.00000000E+00
  0.00000000E+00  0.00000000E+00  0.00000000E+00
  0.00000000E+00  0.00000000E+00  0.00000000E+00
  0.00000000E+00  0.00000000E+00  0.00000000E+00
  0.00000000E+00  0.00000000E+00  0.00000000E+00
  0.00000000E+00  0.00000000E+00  0.00000000E+00
  0.00000000E+00  0.00000000E+00  0.00000000E+00
  0.00000000E+00  0.00000000E+00  0.00000000E+00
  0.00000000E+00  0.00000000E+00  0.00000000E+00
  0.00000000E+00  0.00000000E+00  0.00000000E+00
