Primitive Cell                          
   1.00000000000000     
    29.2066629406473446   -0.0056637650831663    0.0000000000000000
    14.5984265057888436   25.2965439489646116    0.0000000000000000
     0.0000000000000000    0.0000000000000000   20.0000000000000000
   H    C    N 
    36    57    12
Direct
  0.5119035491673500  0.9663695023340750  0.6803157585292823
  0.8786744577974162  0.4820990582850015  0.5040604022101647
  0.7800533027055820  0.5316056868324566  0.5000299073592629
  0.8787216185160958  0.6295295860699142  0.5040394519167251
  0.7800928016171724  0.6786313218077211  0.5000484320022096
  0.6786313218077211  0.7800928016171724  0.5000484320022096
  0.6295295860699142  0.8787216185160958  0.5040394519167251
  0.5316056868324566  0.7800533027055820  0.5000299073592629
  0.4820990582850015  0.8786744577974162  0.5040604022101647
  0.5315864760247919  0.6785828297025702  0.4999294666532492
  0.4820575838986088  0.6294675491720128  0.5040125380941873
  0.6294675491720128  0.4820575838986088  0.5040125380941873
  0.6785828297025702  0.5315864760247919  0.4999294666532492
  0.1148477185501946  0.5114299477372839  0.5023944796507465
  0.2135507925193991  0.4617739676906041  0.5000364938145339
  0.1146208162923941  0.3640815162830222  0.5024982877727737
  0.2133300762281394  0.3148569666668024  0.5001883121063315
  0.3148569666668024  0.2133300762281394  0.5001883121063315
  0.3640815162830222  0.1146208162923941  0.5024982877727737
  0.4617739676906041  0.2135507925193991  0.5000364938145339
  0.5114299477372839  0.1148477185501946  0.5023944796507465
  0.4618178435961013  0.3148233187491201  0.4999297781147121
  0.5113827071014327  0.3639734296859487  0.5025393005787109
  0.3639734296859487  0.5113827071014327  0.5025393005787109
  0.3148233187491201  0.4618178435961013  0.4999297781147121
  0.4711578681630684  0.4711578681630684  0.6162250781018912
  0.5119170122123293  0.5119170122123293  0.6802677659415224
  0.5082289069508050  0.5684506123641171  0.6407525693518821
  0.5684506123641171  0.5082289069508050  0.6407525693518821
  0.0478602644087260  0.4710264458255438  0.6162109430049298
  0.9663695023340750  0.5119035491673500  0.6803157585292823
  0.9135166963865160  0.5081944072040230  0.6408362237768443
  0.9135428663967957  0.5684270522405441  0.6408004266012099
  0.4710264458255438  0.0478602644087260  0.6162109430049298
  0.5684270522405441  0.9135428663967957  0.6408004266012099
  0.5081944072040230  0.9135166963865160  0.6408362237768443
  0.5103055600255857  0.9695642093603283  0.5725987896707210
  0.5232592269793699  0.9438668038816900  0.5098009748221699
  0.5253425878617435  0.9394660215432111  0.6372675640350991
  0.7153879681038617  0.6374659192160692  0.4996329877782131
  0.6374447481616627  0.6374447481616627  0.4994766953267060
  0.6374659192160692  0.7153879681038617  0.4996329877782131
  0.6081712746113084  0.6081712746113084  0.5004578747710013
  0.6355405015520574  0.5526458974861796  0.5012193732788788
  0.6079854945063090  0.5251910214477746  0.5036424536663020
  0.5525616818066723  0.5525616818066723  0.5052498252711644
  0.5251910214477746  0.6079854945063090  0.5036424536663020
  0.5526458974861796  0.6355405015520574  0.5012193732788788
  0.7739116670627553  0.6082013268651281  0.5005920039933471
  0.8020404263815166  0.5526756317073733  0.5013222729603584
  0.8570338773146773  0.5252341371729656  0.5037181469911403
  0.8850801545569666  0.5526289003286706  0.5053179854730345
  0.8570559262066624  0.6080482206564000  0.5037058691193366
  0.8020659133249524  0.6355892129653924  0.5013266381924026
  0.6082013268651281  0.7739116670627553  0.5005920039933471
  0.6355892129653924  0.8020659133249524  0.5013266381924026
  0.6080482206564000  0.8570559262066624  0.5037058691193366
  0.5526289003286706  0.8850801545569666  0.5053179854730345
  0.5252341371729656  0.8570338773146773  0.5037181469911403
  0.5526756317073733  0.8020404263815166  0.5013222729603584
  0.2780517256580737  0.3559604701254671  0.5002870674007696
  0.3559815704677121  0.3559815704677121  0.4999420843572722
  0.3559604701254671  0.2780517256580737  0.5002870674007696
  0.3852557956364819  0.3852557956364819  0.5003382385584842
  0.3578744092300852  0.4407803567026534  0.5007300684418681
  0.3854278109142939  0.4682573524498324  0.5023447561873695
  0.4408459188818483  0.4408459188818483  0.5036080590145104
  0.4682573524498324  0.3854278109142939  0.5023447561873695
  0.4407803567026534  0.3578744092300852  0.5007300684418681
  0.2195397774058421  0.3852575303960322  0.5006050232380446
  0.1914797882573680  0.4407827283284433  0.5008416740414745
  0.1364674901331782  0.4683017326908114  0.5023148963704216
  0.1084066652146163  0.4409249592223006  0.5035878129164573
  0.1363387828381875  0.3855032579314042  0.5023958070605090
  0.1913528166564120  0.3579096575943197  0.5009307403019889
  0.3852575303960322  0.2195397774058421  0.5006050232380446
  0.3579096575943197  0.1913528166564120  0.5009307403019889
  0.3855032579314042  0.1363387828381875  0.5023958070605090
  0.4409249592223006  0.1084066652146163  0.5035878129164573
  0.4683017326908114  0.1364674901331782  0.5023148963704216
  0.4407827283284433  0.1914797882573680  0.5008416740414745
  0.4702238197799460  0.4702238197799460  0.5079765024723386
  0.4828594439243190  0.4828594439243190  0.5703313331105662
  0.5103066814250354  0.5103066814250354  0.5725719963423117
  0.5231524930958074  0.5231524930958074  0.5097521154437246
  0.5253691198318222  0.5253691198318222  0.6372204267742987
  0.0496738052118175  0.4703389348360005  0.5079582986567814
  0.0244411807283527  0.4828323239103227  0.5703301021328855
  0.9695642093603283  0.5103055600255857  0.5725987896707210
  0.9438668038816900  0.5232592269793699  0.5098009748221699
  0.9394660215432111  0.5253425878617435  0.6372675640350991
  0.4703389348360005  0.0496738052118175  0.5079582986567814
  0.4828323239103227  0.0244411807283456  0.5703301021328855
  0.5103851555981720  0.9699538633573965  0.4511907847868315
  0.6905815839848586  0.6091181772625092  0.4994499137421471
  0.6091181772625092  0.6905815839848586  0.4994499137421471
  0.6906070288648891  0.6906070288648891  0.4997796209141114
  0.3028433378385387  0.3843158475234105  0.4999632620681780
  0.3843158475234105  0.3028433378385387  0.4999632620681780
  0.3028228217630655  0.3028228217630655  0.5006808793560253
  0.5100929883986751  0.5100929883986751  0.4511551566860135
  0.4836911725792206  0.4836911725792206  0.4498862994024861
  0.9699538633573965  0.5103851555981720  0.4511907847868315
  0.0227271118047696  0.4840071432747237  0.4498843510508124
  0.4840071432747237  0.0227271118047696  0.4498843510508124
 
  0.00000000E+00  0.00000000E+00  0.00000000E+00
  0.00000000E+00  0.00000000E+00  0.00000000E+00
  0.00000000E+00  0.00000000E+00  0.00000000E+00
  0.00000000E+00  0.00000000E+00  0.00000000E+00
  0.00000000E+00  0.00000000E+00  0.00000000E+00
  0.00000000E+00  0.00000000E+00  0.00000000E+00
  0.00000000E+00  0.00000000E+00  0.00000000E+00
  0.00000000E+00  0.00000000E+00  0.00000000E+00
  0.00000000E+00  0.00000000E+00  0.00000000E+00
  0.00000000E+00  0.00000000E+00  0.00000000E+00
  0.00000000E+00  0.00000000E+00  0.00000000E+00
  0.00000000E+00  0.00000000E+00  0.00000000E+00
  0.00000000E+00  0.00000000E+00  0.00000000E+00
  0.00000000E+00  0.00000000E+00  0.00000000E+00
  0.00000000E+00  0.00000000E+00  0.00000000E+00
  0.00000000E+00  0.00000000E+00  0.00000000E+00
  0.00000000E+00  0.00000000E+00  0.00000000E+00
  0.00000000E+00  0.00000000E+00  0.00000000E+00
  0.00000000E+00  0.00000000E+00  0.00000000E+00
  0.00000000E+00  0.00000000E+00  0.00000000E+00
  0.00000000E+00  0.00000000E+00  0.00000000E+00
  0.00000000E+00  0.00000000E+00  0.00000000E+00
  0.00000000E+00  0.00000000E+00  0.00000000E+00
  0.00000000E+00  0.00000000E+00  0.00000000E+00
  0.00000000E+00  0.00000000E+00  0.00000000E+00
  0.00000000E+00  0.00000000E+00  0.00000000E+00
  0.00000000E+00  0.00000000E+00  0.00000000E+00
  0.00000000E+00  0.00000000E+00  0.00000000E+00
  0.00000000E+00  0.00000000E+00  0.00000000E+00
  0.00000000E+00  0.00000000E+00  0.00000000E+00
  0.00000000E+00  0.00000000E+00  0.00000000E+00
  0.00000000E+00  0.00000000E+00  0.00000000E+00
  0.00000000E+00  0.00000000E+00  0.00000000E+00
  0.00000000E+00  0.00000000E+00  0.00000000E+00
  0.00000000E+00  0.00000000E+00  0.00000000E+00
  0.00000000E+00  0.00000000E+00  0.00000000E+00
  0.00000000E+00  0.00000000E+00  0.00000000E+00
  0.00000000E+00  0.00000000E+00  0.00000000E+00
  0.00000000E+00  0.00000000E+00  0.00000000E+00
  0.00000000E+00  0.00000000E+00  0.00000000E+00
  0.00000000E+00  0.00000000E+00  0.00000000E+00
  0.00000000E+00  0.00000000E+00  0.00000000E+00
  0.00000000E+00  0.00000000E+00  0.00000000E+00
  0.00000000E+00  0.00000000E+00  0.00000000E+00
  0.00000000E+00  0.00000000E+00  0.00000000E+00
  0.00000000E+00  0.00000000E+00  0.00000000E+00
  0.00000000E+00  0.00000000E+00  0.00000000E+00
  0.00000000E+00  0.00000000E+00  0.00000000E+00
  0.00000000E+00  0.00000000E+00  0.00000000E+00
  0.00000000E+00  0.00000000E+00  0.00000000E+00
  0.00000000E+00  0.00000000E+00  0.00000000E+00
  0.00000000E+00  0.00000000E+00  0.00000000E+00
  0.00000000E+00  0.00000000E+00  0.00000000E+00
  0.00000000E+00  0.00000000E+00  0.00000000E+00
  0.00000000E+00  0.00000000E+00  0.00000000E+00
  0.00000000E+00  0.00000000E+00  0.00000000E+00
  0.00000000E+00  0.00000000E+00  0.00000000E+00
  0.00000000E+00  0.00000000E+00  0.00000000E+00
  0.00000000E+00  0.00000000E+00  0.00000000E+00
  0.00000000E+00  0.00000000E+00  0.00000000E+00
  0.00000000E+00  0.00000000E+00  0.00000000E+00
  0.00000000E+00  0.00000000E+00  0.00000000E+00
  0.00000000E+00  0.00000000E+00  0.00000000E+00
  0.00000000E+00  0.00000000E+00  0.00000000E+00
  0.00000000E+00  0.00000000E+00  0.00000000E+00
  0.00000000E+00  0.00000000E+00  0.00000000E+00
  0.00000000E+00  0.00000000E+00  0.00000000E+00
  0.00000000E+00  0.00000000E+00  0.00000000E+00
  0.00000000E+00  0.00000000E+00  0.00000000E+00
  0.00000000E+00  0.00000000E+00  0.00000000E+00
  0.00000000E+00  0.00000000E+00  0.00000000E+00
  0.00000000E+00  0.00000000E+00  0.00000000E+00
  0.00000000E+00  0.00000000E+00  0.00000000E+00
  0.00000000E+00  0.00000000E+00  0.00000000E+00
  0.00000000E+00  0.00000000E+00  0.00000000E+00
  0.00000000E+00  0.00000000E+00  0.00000000E+00
  0.00000000E+00  0.00000000E+00  0.00000000E+00
  0.00000000E+00  0.00000000E+00  0.00000000E+00
  0.00000000E+00  0.00000000E+00  0.00000000E+00
  0.00000000E+00  0.00000000E+00  0.00000000E+00
  0.00000000E+00  0.00000000E+00  0.00000000E+00
  0.00000000E+00  0.00000000E+00  0.00000000E+00
  0.00000000E+00  0.00000000E+00  0.00000000E+00
  0.00000000E+00  0.00000000E+00  0.00000000E+00
  0.00000000E+00  0.00000000E+00  0.00000000E+00
  0.00000000E+00  0.00000000E+00  0.00000000E+00
  0.00000000E+00  0.00000000E+00  0.00000000E+00
  0.00000000E+00  0.00000000E+00  0.00000000E+00
  0.00000000E+00  0.00000000E+00  0.00000000E+00
  0.00000000E+00  0.00000000E+00  0.00000000E+00
  0.00000000E+00  0.00000000E+00  0.00000000E+00
  0.00000000E+00  0.00000000E+00  0.00000000E+00
  0.00000000E+00  0.00000000E+00  0.00000000E+00
  0.00000000E+00  0.00000000E+00  0.00000000E+00
  0.00000000E+00  0.00000000E+00  0.00000000E+00
  0.00000000E+00  0.00000000E+00  0.00000000E+00
  0.00000000E+00  0.00000000E+00  0.00000000E+00
  0.00000000E+00  0.00000000E+00  0.00000000E+00
  0.00000000E+00  0.00000000E+00  0.00000000E+00
  0.00000000E+00  0.00000000E+00  0.00000000E+00
  0.00000000E+00  0.00000000E+00  0.00000000E+00
  0.00000000E+00  0.00000000E+00  0.00000000E+00
  0.00000000E+00  0.00000000E+00  0.00000000E+00
  0.00000000E+00  0.00000000E+00  0.00000000E+00
  0.00000000E+00  0.00000000E+00  0.00000000E+00
