Primitive Cell                          
   1.00000000000000     
    29.2658474228951562    0.0043500244075261    0.0000000000000000
   -14.6291416861641093   25.2867894546305756    0.0000000000000000
     0.0000000000000000    0.0000000000000000   20.0000000000000000
   H    N    O    C 
    33    15     3    57
Direct
  0.5048793565248459  0.6202007030329497  0.5383758239252359
  0.4596977875420549  0.6736191258461588  0.5315368548168635
  0.3621574083455670  0.4829753213657497  0.4704822698594100
  0.3169831907617535  0.5356693894272055  0.4675551928157660
  0.2153296136850429  0.5408500953593958  0.5310261697515273
  0.1167388129257034  0.4955638729986376  0.5370500071561111
  0.2207960340462378  0.6838993214421905  0.4667502734929414
  0.1229927600611660  0.6386298436677436  0.4688551945595592
  0.3275878244894699  0.7857778418566923  0.5306630794992557
  0.3811010232455772  0.8845141727745371  0.5369664722716081
  0.5177717705370029  0.8783661972347119  0.4690266442294373
  0.4650107812525022  0.7803546694405057  0.4667818238741930
  0.4846684746032821  0.3638612120811473  0.4830798691693730
  0.5362596788882144  0.3167463872598901  0.4809368321108778
  0.6278287611954383  0.5104568504472340  0.5238070477454784
  0.6788509757639645  0.4635591782575617  0.5190073267536945
  0.7829794954438611  0.4663737186299528  0.4808765331395790
  0.8817142384714742  0.5174634428217786  0.4822050850629864
  0.7858055492772777  0.3227864779409728  0.5169009695325215
  0.8837378323811009  0.3732976956093310  0.5210436562035028
  0.6850130676920259  0.2191896924505272  0.4800163456057973
  0.6374460924603724  0.1203155289253530  0.4819625070253366
  0.4915898656964046  0.1179498878203162  0.5227230721723544
  0.5389466955741895  0.2160012074569764  0.5182661828530115
  0.5476710235381645  0.0741886543801158  0.6566062710742386
  0.5025457985506137  0.0881460935256513  0.6952864492134907
  0.5282737995400382  0.4524872121985197  0.6571980223104532
  0.5867836654348366  0.4980872009214536  0.6967838604780781
  0.9266446927516441  0.4740060054967969  0.6549213503769025
  0.9123878640165444  0.4151288076051642  0.6947458750691879
  0.5402571541809138  0.9591822317649559  0.4271522068543803
  0.4203499681087379  0.4607332789825307  0.4287803292442405
  0.0428019320801951  0.5805310796287628  0.4265491265551944
  0.3885144022450717  0.6921027783523215  0.4969120420754294
  0.3088871229243608  0.6956469246795933  0.4972686291050792
  0.3053266635017380  0.6123579833412336  0.4975016533227929
  0.6137943737138158  0.3060075694259439  0.4991160952596090
  0.6961571205964034  0.3080948842940998  0.4983894728532476
  0.6941792819475552  0.3886186498560491  0.4998683593409226
  0.4678142771278004  0.9702853929716255  0.5507243639025248
  0.5113410430757739  0.0703187499232314  0.6580062858710178
  0.5037750425418253  0.5332557453863487  0.5525743972471702
  0.5601659843399744  0.4892884875853980  0.6595138074209004
  0.0309045652944135  0.4968035810439275  0.5505055932604321
  0.9305821353458583  0.4415506590891809  0.6573233140953789
  0.5512878370416487  0.0300974955780617  0.4636219194518745
  0.4802782812830273  0.4499526138510248  0.4651055209182857
  0.9718008799226467  0.5208907040840742  0.4629184369992529
  0.4320143251139896  0.0428263538652800  0.6064316985955500
  0.6113224485810633  0.5695420362260109  0.6093363029545102
  0.9579897289173331  0.3889519321499080  0.6074208874003091
  0.3584411841279476  0.6390681779295591  0.4974274979121844
  0.3618498478850185  0.7185892182803784  0.4971225366571730
  0.2824275966383283  0.6424242068267887  0.4974032961265138
  0.3929728519395113  0.7770023011468723  0.4980967596861490
  0.4467353082205108  0.8035421945295909  0.4808889058148864
  0.4759868132723710  0.8584839699027143  0.4821236627915724
  0.4525937178659376  0.8881820774243110  0.5023507272980012
  0.3989248590663408  0.8614156383183769  0.5204827732059272
  0.3693099337943693  0.8066077015816120  0.5174143509722597
  0.3856339026578581  0.6079554894587815  0.4988666033251050
  0.4388371693557360  0.6318008793193144  0.5184010608078893
  0.4639900438014450  0.6022395250885921  0.5218106239066742
  0.4370736011325675  0.5484382266833876  0.5038677984110080
  0.3840421567374790  0.5248607186372425  0.4834564581965068
  0.3583983196129878  0.5540679000497235  0.4818469015378923
  0.2241175990321125  0.6151082063241731  0.4982968206383234
  0.1945424251666239  0.5617692587129568  0.5176409167880038
  0.1398210612878685  0.5365438041974642  0.5205627103274182
  0.1131467230102245  0.5635138739456096  0.5022698665259000
  0.1428223498560754  0.6166822188392942  0.4820392298790139
  0.1976570261344293  0.6423878335366879  0.4809120600520984
  0.6411420161146282  0.3591949546183670  0.4996199530189926
  0.6430727940709673  0.2822615178885286  0.4988090078054057
  0.7198845510466043  0.3612053487146767  0.4990278858546233
  0.6150317992134617  0.2237943618468847  0.4997566154254898
  0.5603714982321648  0.1947621175253147  0.5113582471641820
  0.5340968725013582  0.1398451066490125  0.5141254235490820
  0.5617928840285700  0.1125084486848920  0.5044369718094543
  0.6162781055905029  0.1416074903802809  0.4909463168082553
  0.6426825505268710  0.1965214735534957  0.4894075403572060
  0.6106890812880295  0.3871130139957089  0.5007156841649874
  0.5557773233028982  0.3591330350204984  0.4903869291297127
  0.5271128086524541  0.3852784059490091  0.4920409276073485
  0.5523325812668745  0.4398258985140089  0.5056504717346826
  0.6073653738065872  0.4678791380117602  0.5152000588194667
  0.6361795653265929  0.4418692654399621  0.5122655757189207
  0.7782433205455277  0.3914798569750957  0.4996166264806874
  0.8055518485953854  0.4465230999937617  0.4896571571162553
  0.8603724302557154  0.4748982551166634  0.4908584722242608
  0.8892870100531312  0.4492235615494309  0.5037045921854642
  0.8619278408239097  0.3940645593192897  0.5129033537410379
  0.8071031705261618  0.3655506235560750  0.5103776393679524
  0.5348371050663516  0.0541799012315423  0.5071689465965719
  0.4829710121407729  0.9464504117204413  0.5054603495021723
  0.4937116003405819  0.0230582856724482  0.5527315218040414
  0.4757416045588272  0.0463772517396634  0.6078010344983369
  0.5207776795028707  0.4664736498161872  0.5086805837861732
  0.4649016631621095  0.5181077419918054  0.5071780258210126
  0.5306108048510794  0.5074073273859767  0.5545297744302005
  0.5716088205303578  0.5253361981448279  0.6098840354598636
  0.9474889535927886  0.4804120692476346  0.5065221137131175
  0.0549889334403346  0.5357396226295350  0.5051681410003113
  0.9782441053179483  0.4702332101389075  0.5523827902537803
  0.9545890581458707  0.4292912034820446  0.6078281219458148
  0.5262568200355844  0.9775042997135586  0.4632473696466661
  0.4526628281471687  0.4748231799200013  0.4648695943055827
  0.0242985922227490  0.5482247527744804  0.4626997173954521
 
  0.00000000E+00  0.00000000E+00  0.00000000E+00
  0.00000000E+00  0.00000000E+00  0.00000000E+00
  0.00000000E+00  0.00000000E+00  0.00000000E+00
  0.00000000E+00  0.00000000E+00  0.00000000E+00
  0.00000000E+00  0.00000000E+00  0.00000000E+00
  0.00000000E+00  0.00000000E+00  0.00000000E+00
  0.00000000E+00  0.00000000E+00  0.00000000E+00
  0.00000000E+00  0.00000000E+00  0.00000000E+00
  0.00000000E+00  0.00000000E+00  0.00000000E+00
  0.00000000E+00  0.00000000E+00  0.00000000E+00
  0.00000000E+00  0.00000000E+00  0.00000000E+00
  0.00000000E+00  0.00000000E+00  0.00000000E+00
  0.00000000E+00  0.00000000E+00  0.00000000E+00
  0.00000000E+00  0.00000000E+00  0.00000000E+00
  0.00000000E+00  0.00000000E+00  0.00000000E+00
  0.00000000E+00  0.00000000E+00  0.00000000E+00
  0.00000000E+00  0.00000000E+00  0.00000000E+00
  0.00000000E+00  0.00000000E+00  0.00000000E+00
  0.00000000E+00  0.00000000E+00  0.00000000E+00
  0.00000000E+00  0.00000000E+00  0.00000000E+00
  0.00000000E+00  0.00000000E+00  0.00000000E+00
  0.00000000E+00  0.00000000E+00  0.00000000E+00
  0.00000000E+00  0.00000000E+00  0.00000000E+00
  0.00000000E+00  0.00000000E+00  0.00000000E+00
  0.00000000E+00  0.00000000E+00  0.00000000E+00
  0.00000000E+00  0.00000000E+00  0.00000000E+00
  0.00000000E+00  0.00000000E+00  0.00000000E+00
  0.00000000E+00  0.00000000E+00  0.00000000E+00
  0.00000000E+00  0.00000000E+00  0.00000000E+00
  0.00000000E+00  0.00000000E+00  0.00000000E+00
  0.00000000E+00  0.00000000E+00  0.00000000E+00
  0.00000000E+00  0.00000000E+00  0.00000000E+00
  0.00000000E+00  0.00000000E+00  0.00000000E+00
  0.00000000E+00  0.00000000E+00  0.00000000E+00
  0.00000000E+00  0.00000000E+00  0.00000000E+00
  0.00000000E+00  0.00000000E+00  0.00000000E+00
  0.00000000E+00  0.00000000E+00  0.00000000E+00
  0.00000000E+00  0.00000000E+00  0.00000000E+00
  0.00000000E+00  0.00000000E+00  0.00000000E+00
  0.00000000E+00  0.00000000E+00  0.00000000E+00
  0.00000000E+00  0.00000000E+00  0.00000000E+00
  0.00000000E+00  0.00000000E+00  0.00000000E+00
  0.00000000E+00  0.00000000E+00  0.00000000E+00
  0.00000000E+00  0.00000000E+00  0.00000000E+00
  0.00000000E+00  0.00000000E+00  0.00000000E+00
  0.00000000E+00  0.00000000E+00  0.00000000E+00
  0.00000000E+00  0.00000000E+00  0.00000000E+00
  0.00000000E+00  0.00000000E+00  0.00000000E+00
  0.00000000E+00  0.00000000E+00  0.00000000E+00
  0.00000000E+00  0.00000000E+00  0.00000000E+00
  0.00000000E+00  0.00000000E+00  0.00000000E+00
  0.00000000E+00  0.00000000E+00  0.00000000E+00
  0.00000000E+00  0.00000000E+00  0.00000000E+00
  0.00000000E+00  0.00000000E+00  0.00000000E+00
  0.00000000E+00  0.00000000E+00  0.00000000E+00
  0.00000000E+00  0.00000000E+00  0.00000000E+00
  0.00000000E+00  0.00000000E+00  0.00000000E+00
  0.00000000E+00  0.00000000E+00  0.00000000E+00
  0.00000000E+00  0.00000000E+00  0.00000000E+00
  0.00000000E+00  0.00000000E+00  0.00000000E+00
  0.00000000E+00  0.00000000E+00  0.00000000E+00
  0.00000000E+00  0.00000000E+00  0.00000000E+00
  0.00000000E+00  0.00000000E+00  0.00000000E+00
  0.00000000E+00  0.00000000E+00  0.00000000E+00
  0.00000000E+00  0.00000000E+00  0.00000000E+00
  0.00000000E+00  0.00000000E+00  0.00000000E+00
  0.00000000E+00  0.00000000E+00  0.00000000E+00
  0.00000000E+00  0.00000000E+00  0.00000000E+00
  0.00000000E+00  0.00000000E+00  0.00000000E+00
  0.00000000E+00  0.00000000E+00  0.00000000E+00
  0.00000000E+00  0.00000000E+00  0.00000000E+00
  0.00000000E+00  0.00000000E+00  0.00000000E+00
  0.00000000E+00  0.00000000E+00  0.00000000E+00
  0.00000000E+00  0.00000000E+00  0.00000000E+00
  0.00000000E+00  0.00000000E+00  0.00000000E+00
  0.00000000E+00  0.00000000E+00  0.00000000E+00
  0.00000000E+00  0.00000000E+00  0.00000000E+00
  0.00000000E+00  0.00000000E+00  0.00000000E+00
  0.00000000E+00  0.00000000E+00  0.00000000E+00
  0.00000000E+00  0.00000000E+00  0.00000000E+00
  0.00000000E+00  0.00000000E+00  0.00000000E+00
  0.00000000E+00  0.00000000E+00  0.00000000E+00
  0.00000000E+00  0.00000000E+00  0.00000000E+00
  0.00000000E+00  0.00000000E+00  0.00000000E+00
  0.00000000E+00  0.00000000E+00  0.00000000E+00
  0.00000000E+00  0.00000000E+00  0.00000000E+00
  0.00000000E+00  0.00000000E+00  0.00000000E+00
  0.00000000E+00  0.00000000E+00  0.00000000E+00
  0.00000000E+00  0.00000000E+00  0.00000000E+00
  0.00000000E+00  0.00000000E+00  0.00000000E+00
  0.00000000E+00  0.00000000E+00  0.00000000E+00
  0.00000000E+00  0.00000000E+00  0.00000000E+00
  0.00000000E+00  0.00000000E+00  0.00000000E+00
  0.00000000E+00  0.00000000E+00  0.00000000E+00
  0.00000000E+00  0.00000000E+00  0.00000000E+00
  0.00000000E+00  0.00000000E+00  0.00000000E+00
  0.00000000E+00  0.00000000E+00  0.00000000E+00
  0.00000000E+00  0.00000000E+00  0.00000000E+00
  0.00000000E+00  0.00000000E+00  0.00000000E+00
  0.00000000E+00  0.00000000E+00  0.00000000E+00
  0.00000000E+00  0.00000000E+00  0.00000000E+00
  0.00000000E+00  0.00000000E+00  0.00000000E+00
  0.00000000E+00  0.00000000E+00  0.00000000E+00
  0.00000000E+00  0.00000000E+00  0.00000000E+00
  0.00000000E+00  0.00000000E+00  0.00000000E+00
  0.00000000E+00  0.00000000E+00  0.00000000E+00
  0.00000000E+00  0.00000000E+00  0.00000000E+00
  0.00000000E+00  0.00000000E+00  0.00000000E+00
