Primitive Cell                          
   1.00000000000000     
    29.8185371106990544    0.0006961548998742    0.0000000000000000
   -14.9085660701099076   25.8230083012822220    0.0000000000000000
     0.0000000000000000    0.0000000000000000   20.0000000000000000
   O    N    H    C 
     3     6    42    63
Direct
  0.5242264908177248  0.0396477544501792  0.6364891195637412
  0.5231981976447102  0.4820102591878026  0.6367621539873554
  0.9677307049129951  0.4819284219203368  0.6366607038453509
  0.0354142029989930  0.5163054039626900  0.5685091597537237
  0.4903656139153156  0.9718806230745898  0.5684281363534254
  0.4898710946428579  0.5163596098898680  0.5685616494202250
  0.5202185346502262  0.0308260440240034  0.4527198902919878
  0.5201298061839239  0.4875874013262447  0.4529461651067948
  0.9763881741374973  0.4876757878595015  0.4528495490344540
  0.0459671096294230  0.5226543907441155  0.4005780557339520
  0.1225733942696579  0.6324848128187526  0.5061160429337619
  0.2170305342627614  0.6801299148063933  0.5037759398766823
  0.1226759928090999  0.4882593836336824  0.5060663017867313
  0.2171247281774740  0.5351670618857298  0.5035418484437812
  0.3269626215620391  0.5351610998854852  0.5036389386009148
  0.3745041276174064  0.4882504568237209  0.5061713847806431
  0.4720038809201625  0.6801208289974596  0.5037400680457438
  0.5188236020310484  0.6324769800414032  0.5061014142377616
  0.4720256566263501  0.7901370820143754  0.5035693403084593
  0.5188976817652602  0.8845856325554635  0.5059887685045013
  0.3746350433096026  0.8846154764216152  0.5062320436991072
  0.3270366325415850  0.7901635586384188  0.5038011829705340
  0.2908092499666637  0.7163662161785638  0.5031098615636509
  0.2908233676798915  0.5727393268696588  0.5035540035886399
  0.4344606775316464  0.7163558836340087  0.5032123708890381
  0.8880605424666186  0.3709759126048908  0.5092397744002355
  0.7937114039808222  0.3234644234180166  0.5041696494841759
  0.8882862535551936  0.5152777619374049  0.5064579293485352
  0.7939093542353888  0.4685524409332871  0.5011423705934916
  0.6835865141680273  0.4685493783252497  0.5014687417341150
  0.6359266672682509  0.5152720166696412  0.5067719982457817
  0.5386957801216639  0.3234625562138049  0.5039812781603956
  0.4918540500700104  0.3709836255928991  0.5090966062052402
  0.5386978671249878  0.2134074208361838  0.5019352611555519
  0.4919653580825880  0.1190552261543090  0.5074144509493053
  0.6362061365944243  0.1191295547359346  0.5077001567492445
  0.6837501162645268  0.2134834761805493  0.5022850199836881
  0.7199564157162328  0.2873114239618175  0.5014374618775292
  0.7199480499225146  0.4309577019343109  0.5034788408771007
  0.5763025404506763  0.2872856291731338  0.5017706374705497
  0.5505848155422512  0.0923367092680891  0.7105538334833525
  0.5912427359959480  0.1134064675302753  0.6378566551575204
  0.5311714636930986  0.1134922321785936  0.6377714022776715
  0.5503413826972050  0.4565299498741169  0.7109071944680707
  0.5311281580153846  0.4156855283441701  0.6383719600296374
  0.5907709635380698  0.4762276091634590  0.6380197791270135
  0.9151224011869488  0.4565744243253533  0.7108216574844661
  0.8944260757186200  0.4762705884401086  0.6378927124978588
  0.8934336894039134  0.4156840251538299  0.6383565177746107
  0.4854573938345439  0.9612385050500762  0.4004987822670145
  0.4855434414949613  0.5225615673146748  0.4006376354867172
  0.0580829988403195  0.5280477665433949  0.5084337240997243
  0.0280549071660090  0.5134609183120062  0.4500529428425892
  0.2837454968490292  0.6410146795457621  0.5030991470570427
  0.3118493924439605  0.6953492627973077  0.5030024471818422
  0.3661835827562285  0.7234575271871151  0.5030353974044388
  0.3924053010082531  0.6953435349735457  0.5030404570139879
  0.3661757144381355  0.6410080959430999  0.5031233579114200
  0.3118515829580275  0.6147942993832558  0.5031733689754887
  0.3950469218731882  0.7811848273861131  0.5035269565684075
  0.3691783838188627  0.8098383403823348  0.5040670204985673
  0.3960423162671844  0.8637668015660296  0.5053383503621944
  0.4502309410906236  0.8915226118558124  0.5061483667176745
  0.4766417575132635  0.8637462712749979  0.5051904742226014
  0.4495669308193655  0.8098200393240518  0.5039357173825536
  0.2260282902707402  0.6121327519988071  0.5035709109751494
  0.1973603612491956  0.6379828997588604  0.5040467962480193
  0.1434354691267785  0.6110912210780413  0.5052539301286032
  0.1157080607811736  0.5569009570151309  0.5061535844471123
  0.1435022249898310  0.5305130572540051  0.5052402445655488
  0.1974219671003183  0.5576090431730023  0.5039609479903362
  0.3950123745927741  0.6121238426042268  0.5036157186425712
  0.3691047630379174  0.5576016872305019  0.5040314028840669
  0.3959308769966654  0.5305057453538353  0.5053124946219683
  0.4501137450426782  0.5569015630473757  0.5062078083452590
  0.4765677420425476  0.6110896415109153  0.5052642410392778
  0.4495280893832003  0.6379763333081030  0.5040510946561199
  0.7270363637454480  0.3626756477225470  0.5021167204842456
  0.6989264063077130  0.3083373895294912  0.5015509183525211
  0.6445905302846882  0.2802182857391955  0.5016299907566193
  0.6183600368908202  0.3083264987742069  0.5017088001361216
  0.6445773610306347  0.3626670942224450  0.5022022792408407
  0.6989211778676747  0.3889032361568212  0.5024930403640369
  0.6157472281978329  0.2225012560533912  0.5028547308491511
  0.6416217870605507  0.1938421995577144  0.5038505989254105
  0.6147742305980799  0.1399616350588531  0.5070216114888950
  0.5606131475798719  0.1121296715858335  0.5097220986621451
  0.5342299465193321  0.1399107059953906  0.5068691412557769
  0.5612148099790417  0.1937971114459813  0.5036740560153277
  0.7847536683323781  0.3914967777864931  0.5034548946359010
  0.8133827864937970  0.3656029961556015  0.5050958576291578
  0.8672678832972025  0.3924398240405935  0.5081159322419140
  0.8951342605817345  0.4466210080639001  0.5100156128171491
  0.8673830570685155  0.4730114040158497  0.5065347115465286
  0.8134966081578838  0.4460337789206505  0.5034875182843592
  0.6156835620676091  0.3914919853859899  0.5035516398326507
  0.6414779318795283  0.4460293033536757  0.5037156942387639
  0.6145648729696589  0.4730056305110040  0.5067628775170832
  0.5604198563009817  0.4466149105565549  0.5101084894992951
  0.5341109341209602  0.3924368140489634  0.5080819734875490
  0.5611601270942472  0.3655993823139383  0.5050543075766356
  0.5317812314358150  0.0543463341191810  0.5126092972366578
  0.4791035651850351  0.9491580705809923  0.5083777557184987
  0.5162560878192295  0.0235717089519056  0.5717942690089473
  0.5510348642191474  0.0931690171213617  0.6557716850362851
  0.5314979385459324  0.4754823627895775  0.5128793964003719
  0.4788962353291808  0.5280580723179682  0.5084933658588895
  0.5156850425873500  0.4904860621416205  0.5720302599708376
  0.5506184449487037  0.4559270656809105  0.6561301683853813
  0.9529172830375785  0.4754996734610870  0.5127824447403739
  0.9837276696805901  0.4904367070662161  0.5719405148296346
  0.9142398855282892  0.4559412047979450  0.6560461896931642
  0.4943195471116724  0.9791562416333761  0.4499675073051961
  0.4942667459418288  0.5133936455768904  0.4501206269452780
 
  0.00000000E+00  0.00000000E+00  0.00000000E+00
  0.00000000E+00  0.00000000E+00  0.00000000E+00
  0.00000000E+00  0.00000000E+00  0.00000000E+00
  0.00000000E+00  0.00000000E+00  0.00000000E+00
  0.00000000E+00  0.00000000E+00  0.00000000E+00
  0.00000000E+00  0.00000000E+00  0.00000000E+00
  0.00000000E+00  0.00000000E+00  0.00000000E+00
  0.00000000E+00  0.00000000E+00  0.00000000E+00
  0.00000000E+00  0.00000000E+00  0.00000000E+00
  0.00000000E+00  0.00000000E+00  0.00000000E+00
  0.00000000E+00  0.00000000E+00  0.00000000E+00
  0.00000000E+00  0.00000000E+00  0.00000000E+00
  0.00000000E+00  0.00000000E+00  0.00000000E+00
  0.00000000E+00  0.00000000E+00  0.00000000E+00
  0.00000000E+00  0.00000000E+00  0.00000000E+00
  0.00000000E+00  0.00000000E+00  0.00000000E+00
  0.00000000E+00  0.00000000E+00  0.00000000E+00
  0.00000000E+00  0.00000000E+00  0.00000000E+00
  0.00000000E+00  0.00000000E+00  0.00000000E+00
  0.00000000E+00  0.00000000E+00  0.00000000E+00
  0.00000000E+00  0.00000000E+00  0.00000000E+00
  0.00000000E+00  0.00000000E+00  0.00000000E+00
  0.00000000E+00  0.00000000E+00  0.00000000E+00
  0.00000000E+00  0.00000000E+00  0.00000000E+00
  0.00000000E+00  0.00000000E+00  0.00000000E+00
  0.00000000E+00  0.00000000E+00  0.00000000E+00
  0.00000000E+00  0.00000000E+00  0.00000000E+00
  0.00000000E+00  0.00000000E+00  0.00000000E+00
  0.00000000E+00  0.00000000E+00  0.00000000E+00
  0.00000000E+00  0.00000000E+00  0.00000000E+00
  0.00000000E+00  0.00000000E+00  0.00000000E+00
  0.00000000E+00  0.00000000E+00  0.00000000E+00
  0.00000000E+00  0.00000000E+00  0.00000000E+00
  0.00000000E+00  0.00000000E+00  0.00000000E+00
  0.00000000E+00  0.00000000E+00  0.00000000E+00
  0.00000000E+00  0.00000000E+00  0.00000000E+00
  0.00000000E+00  0.00000000E+00  0.00000000E+00
  0.00000000E+00  0.00000000E+00  0.00000000E+00
  0.00000000E+00  0.00000000E+00  0.00000000E+00
  0.00000000E+00  0.00000000E+00  0.00000000E+00
  0.00000000E+00  0.00000000E+00  0.00000000E+00
  0.00000000E+00  0.00000000E+00  0.00000000E+00
  0.00000000E+00  0.00000000E+00  0.00000000E+00
  0.00000000E+00  0.00000000E+00  0.00000000E+00
  0.00000000E+00  0.00000000E+00  0.00000000E+00
  0.00000000E+00  0.00000000E+00  0.00000000E+00
  0.00000000E+00  0.00000000E+00  0.00000000E+00
  0.00000000E+00  0.00000000E+00  0.00000000E+00
  0.00000000E+00  0.00000000E+00  0.00000000E+00
  0.00000000E+00  0.00000000E+00  0.00000000E+00
  0.00000000E+00  0.00000000E+00  0.00000000E+00
  0.00000000E+00  0.00000000E+00  0.00000000E+00
  0.00000000E+00  0.00000000E+00  0.00000000E+00
  0.00000000E+00  0.00000000E+00  0.00000000E+00
  0.00000000E+00  0.00000000E+00  0.00000000E+00
  0.00000000E+00  0.00000000E+00  0.00000000E+00
  0.00000000E+00  0.00000000E+00  0.00000000E+00
  0.00000000E+00  0.00000000E+00  0.00000000E+00
  0.00000000E+00  0.00000000E+00  0.00000000E+00
  0.00000000E+00  0.00000000E+00  0.00000000E+00
  0.00000000E+00  0.00000000E+00  0.00000000E+00
  0.00000000E+00  0.00000000E+00  0.00000000E+00
  0.00000000E+00  0.00000000E+00  0.00000000E+00
  0.00000000E+00  0.00000000E+00  0.00000000E+00
  0.00000000E+00  0.00000000E+00  0.00000000E+00
  0.00000000E+00  0.00000000E+00  0.00000000E+00
  0.00000000E+00  0.00000000E+00  0.00000000E+00
  0.00000000E+00  0.00000000E+00  0.00000000E+00
  0.00000000E+00  0.00000000E+00  0.00000000E+00
  0.00000000E+00  0.00000000E+00  0.00000000E+00
  0.00000000E+00  0.00000000E+00  0.00000000E+00
  0.00000000E+00  0.00000000E+00  0.00000000E+00
  0.00000000E+00  0.00000000E+00  0.00000000E+00
  0.00000000E+00  0.00000000E+00  0.00000000E+00
  0.00000000E+00  0.00000000E+00  0.00000000E+00
  0.00000000E+00  0.00000000E+00  0.00000000E+00
  0.00000000E+00  0.00000000E+00  0.00000000E+00
  0.00000000E+00  0.00000000E+00  0.00000000E+00
  0.00000000E+00  0.00000000E+00  0.00000000E+00
  0.00000000E+00  0.00000000E+00  0.00000000E+00
  0.00000000E+00  0.00000000E+00  0.00000000E+00
  0.00000000E+00  0.00000000E+00  0.00000000E+00
  0.00000000E+00  0.00000000E+00  0.00000000E+00
  0.00000000E+00  0.00000000E+00  0.00000000E+00
  0.00000000E+00  0.00000000E+00  0.00000000E+00
  0.00000000E+00  0.00000000E+00  0.00000000E+00
  0.00000000E+00  0.00000000E+00  0.00000000E+00
  0.00000000E+00  0.00000000E+00  0.00000000E+00
  0.00000000E+00  0.00000000E+00  0.00000000E+00
  0.00000000E+00  0.00000000E+00  0.00000000E+00
  0.00000000E+00  0.00000000E+00  0.00000000E+00
  0.00000000E+00  0.00000000E+00  0.00000000E+00
  0.00000000E+00  0.00000000E+00  0.00000000E+00
  0.00000000E+00  0.00000000E+00  0.00000000E+00
  0.00000000E+00  0.00000000E+00  0.00000000E+00
  0.00000000E+00  0.00000000E+00  0.00000000E+00
  0.00000000E+00  0.00000000E+00  0.00000000E+00
  0.00000000E+00  0.00000000E+00  0.00000000E+00
  0.00000000E+00  0.00000000E+00  0.00000000E+00
  0.00000000E+00  0.00000000E+00  0.00000000E+00
  0.00000000E+00  0.00000000E+00  0.00000000E+00
  0.00000000E+00  0.00000000E+00  0.00000000E+00
  0.00000000E+00  0.00000000E+00  0.00000000E+00
  0.00000000E+00  0.00000000E+00  0.00000000E+00
  0.00000000E+00  0.00000000E+00  0.00000000E+00
  0.00000000E+00  0.00000000E+00  0.00000000E+00
  0.00000000E+00  0.00000000E+00  0.00000000E+00
  0.00000000E+00  0.00000000E+00  0.00000000E+00
  0.00000000E+00  0.00000000E+00  0.00000000E+00
  0.00000000E+00  0.00000000E+00  0.00000000E+00
  0.00000000E+00  0.00000000E+00  0.00000000E+00
  0.00000000E+00  0.00000000E+00  0.00000000E+00
  0.00000000E+00  0.00000000E+00  0.00000000E+00
  0.00000000E+00  0.00000000E+00  0.00000000E+00
