Primitive Cell                          
   1.00000000000000     
    21.5481028492232767   -0.0004069150097295    0.0000000000000000
   -10.7743028496041955   18.6615866107492607    0.0000000000000000
     0.0000000100150784   -0.0006649622801683   20.0000000000000000
   C    H 
    84    42
Direct
  0.3571424661004201  0.4218421942850199  0.4924169808422860
  0.3572224026426838  0.3554227866683917  0.4923925399199973
  0.2910712597445198  0.2901713795763285  0.4923369292727742
  0.2268828345575216  0.2915669700244621  0.4923107909293449
  0.2254721675523612  0.3557449161441824  0.4923520831714470
  0.2907142771440192  0.4219035061509899  0.4924198141460749
  0.4246826092160916  0.3573224890994382  0.4924213394149390
  0.2925835707765359  0.4893492851177541  0.4924814091809324
  0.4234885122874488  0.4882001276010755  0.4924213965091226
  0.4899224296424052  0.4881476158272307  0.4924087937766259
  0.5551651320638129  0.5543052944203950  0.4923475057397368
  0.5537537281736746  0.6184840645327441  0.4922974788190970
  0.4895613649576518  0.6198666095146663  0.4923435540444956
  0.4234092494532007  0.5546170262043262  0.4924225622709244
  0.4880550941287822  0.4207057894279487  0.4924345216240908
  0.3559552951253906  0.5527303635511487  0.4924844011142113
  0.4921355179122244  0.7883205333205012  0.4320418622293616
  0.4921262380403491  0.7235313954406379  0.4320380918451718
  0.4914704878572351  0.6899440581648122  0.4923230549992539
  0.4914918016061023  0.8212637600345900  0.4923255367836106
  0.0570007147715685  0.7235347769685916  0.4320377467190326
  0.1217869273303620  0.7883215910064791  0.4320352826492666
  0.1553936152507021  0.8212553559074394  0.4923163214527762
  0.0240755800146459  0.6899331060781364  0.4923206834649889
  0.1217929906580082  0.3531880183081242  0.4320564540614384
  0.0570084541031548  0.3531905995960969  0.4320587800617446
  0.0240653343617652  0.3538403219089261  0.4923413073693155
  0.1553833900449604  0.3538259586179890  0.4923365203068215
  0.2884596591660156  0.1216785486907099  0.4320542564971319
  0.2884632360858106  0.1864625745120705  0.4320466860903807
  0.2891418697118127  0.2200786253978890  0.4923240916405334
  0.2891317234665607  0.0887494505386925  0.4923325918233274
  0.7236208268795323  0.1864623614796770  0.4320544365462027
  0.6588371520641658  0.1216770809256218  0.4320615371416849
  0.6252524098842116  0.0887441305282621  0.4923472151758830
  0.7565699707721691  0.2200687801494823  0.4923337123676248
  0.6588432178856749  0.5568680962101809  0.4320592301973889
  0.7236241853122181  0.5568616918500666  0.4320591684202810
  0.7565751890916133  0.5562145931115907  0.4923378876825240
  0.6252553673493395  0.5562334285182757  0.4923384103254236
  0.4234931878867201  0.9550075102596480  0.4924462434156069
  0.4899197064476724  0.0215009292359554  0.4924323394666104
  0.5551616163289381  0.0205896183115684  0.4923638030059649
  0.5537606545343863  0.9550081609023380  0.4923069739637711
  0.4895772986921898  0.8894288816631644  0.4923468017986821
  0.4234218023470646  0.8885161455785209  0.4924353634720475
  0.4880493303584856  0.0870757637076807  0.4924441295267385
  0.3559723655458384  0.8229422260038319  0.4925002157202698
  0.3571460220844926  0.9550085162863056  0.4924375076170193
  0.3572193740473253  0.0215050028322210  0.4924106653377365
  0.2910639467482383  0.0205913147954462  0.4923325392314979
  0.2268818585713532  0.9550054421327374  0.4922581278287907
  0.2254783605786628  0.8894239209827930  0.4923273741608085
  0.2907216531174726  0.8885134299454194  0.4924292550908689
  0.4246728914644038  0.0870770509146439  0.4924235885081245
  0.2925951861452134  0.8229393386573918  0.4924974839675968
  0.8903121709320487  0.4881871887064193  0.4924282961571294
  0.8238194396216940  0.4881232900755776  0.4924231360611770
  0.8247335182420557  0.5542782752793869  0.4923485607688249
  0.8903215868445784  0.6184616316230489  0.4922935658154586
  0.9559019251475576  0.6198546560242164  0.4923392645004583
  0.9568076113547690  0.5546079006453724  0.4924162688147646
  0.7582479875402370  0.4206732999327869  0.4924862251801656
  0.0223796421266300  0.5527295427611776  0.4924736337473590
  0.8903104870922647  0.4218369286604258  0.4924334843184823
  0.8238135675669085  0.3554112079595768  0.4924275505627378
  0.8247250832038304  0.2901681061950470  0.4923465537100995
  0.8903108219951790  0.2915739634437529  0.4922942530812620
  0.9558962204210601  0.3557552047892756  0.4923526379024139
  0.9568054533815982  0.4219077696550357  0.4924275031803376
  0.7582449608197379  0.3572955582771300  0.4924856018648356
  0.0223811056399583  0.4893561209241071  0.4924814802263811
  0.4918129098470345  0.7233820507093540  0.5526076416883967
  0.4918327449061124  0.7881730327824457  0.5526088562134746
  0.1219732824459854  0.7881473152593657  0.5526009089679533
  0.0571960647433443  0.7233598497348552  0.5526017969657957
  0.0571720287560353  0.3535106250819453  0.5526208389584468
  0.1219488891703833  0.3534996942518802  0.5526177798456402
  0.2887797000528209  0.1866283477953772  0.5526045608269357
  0.2887730462379707  0.1218448334409672  0.5526112789243314
  0.6587175588930236  0.1218252499685732  0.5526255894531289
  0.7234969309886097  0.1866075287391169  0.5526170584231878
  0.7234873899242942  0.5565871069439297  0.5526171796040060
  0.6587094490228651  0.5565947476423077  0.5526175992267852
  0.1762354819672112  0.2409120994203064  0.4922903568561523
  0.6043965838054746  0.6691490164324705  0.4922581587951029
  0.5387210178320316  0.4208334632383242  0.4924529105201998
  0.4245807657477698  0.3066697985435383  0.4924215168544066
  0.3560565601250829  0.6033820345350307  0.4925391783315547
  0.2419233705160693  0.4892318668658007  0.4925284769966041
  0.4920036205008458  0.6981549156703721  0.3847749878553230
  0.4920205123928767  0.8135783414388769  0.3847818329427781
  0.1471494549091901  0.8135770840560852  0.3847688011949515
  0.0317347218050656  0.6981665140445159  0.3847768067787385
  0.0317517206584625  0.3533119920376890  0.3847951218828030
  0.1471655978397735  0.3533224032506581  0.3847896083352964
  0.2885750171190722  0.2118156103902322  0.3847742123819202
  0.2885728066416391  0.0964142015040608  0.3847966507490952
  0.6334553666852329  0.0964259146841258  0.3847992752473033
  0.7488586470629457  0.2118250130291983  0.3847843915651694
  0.7488570266529635  0.5567209835758788  0.3847885896510874
  0.6334662697861617  0.5567271504241944  0.3847915836347298
  0.6044130127676368  0.9550107552473577  0.4922591133729597
  0.1762337806581797  0.9550067267139326  0.4921788879637035
  0.4245704742042307  0.1376283191602994  0.4923739615908644
  0.5387121252769091  0.1376208135630321  0.4924391168224105
  0.2419372891847260  0.7723975348197385  0.4925419278503469
  0.3560852929479310  0.7723993549024399  0.4925580914054848
  0.8903322920689547  0.6691181571748572  0.4922503101755211
  0.8903091928742626  0.2409246730854235  0.4922418127669417
  0.7076971826830132  0.3066384119157988  0.4925280754014523
  0.7077049125646440  0.4207900189640057  0.4925308748855173
  0.0729284995026944  0.4892470541187137  0.4925240013882899
  0.0729266767773993  0.6033834896132007  0.4925125194169766
  0.4914515893699374  0.6978874272345621  0.5998723358426403
  0.4915025363411587  0.8133233177834853  0.5998735336437164
  0.1474621249979080  0.8132770328665728  0.5998682205336152
  0.0320806794362269  0.6978647953106005  0.5998717346476568
  0.0320553316952044  0.3538811715185162  0.5998919110979344
  0.1474320621939071  0.3538553845290835  0.5998880494104242
  0.2891197679934336  0.2121055366161215  0.5998731279657932
  0.2891056841022106  0.0967155873976253  0.5998866213614988
  0.6332578908287303  0.0966893131405016  0.5998987151886368
  0.7486401190200027  0.2120763541096480  0.5998855992996468
  0.7486172848883115  0.5562448006041265  0.5998880917517724
  0.6332385346526834  0.5562499535039933  0.5998915430372094
 
  0.00000000E+00  0.00000000E+00  0.00000000E+00
  0.00000000E+00  0.00000000E+00  0.00000000E+00
  0.00000000E+00  0.00000000E+00  0.00000000E+00
  0.00000000E+00  0.00000000E+00  0.00000000E+00
  0.00000000E+00  0.00000000E+00  0.00000000E+00
  0.00000000E+00  0.00000000E+00  0.00000000E+00
  0.00000000E+00  0.00000000E+00  0.00000000E+00
  0.00000000E+00  0.00000000E+00  0.00000000E+00
  0.00000000E+00  0.00000000E+00  0.00000000E+00
  0.00000000E+00  0.00000000E+00  0.00000000E+00
  0.00000000E+00  0.00000000E+00  0.00000000E+00
  0.00000000E+00  0.00000000E+00  0.00000000E+00
  0.00000000E+00  0.00000000E+00  0.00000000E+00
  0.00000000E+00  0.00000000E+00  0.00000000E+00
  0.00000000E+00  0.00000000E+00  0.00000000E+00
  0.00000000E+00  0.00000000E+00  0.00000000E+00
  0.00000000E+00  0.00000000E+00  0.00000000E+00
  0.00000000E+00  0.00000000E+00  0.00000000E+00
  0.00000000E+00  0.00000000E+00  0.00000000E+00
  0.00000000E+00  0.00000000E+00  0.00000000E+00
  0.00000000E+00  0.00000000E+00  0.00000000E+00
  0.00000000E+00  0.00000000E+00  0.00000000E+00
  0.00000000E+00  0.00000000E+00  0.00000000E+00
  0.00000000E+00  0.00000000E+00  0.00000000E+00
  0.00000000E+00  0.00000000E+00  0.00000000E+00
  0.00000000E+00  0.00000000E+00  0.00000000E+00
  0.00000000E+00  0.00000000E+00  0.00000000E+00
  0.00000000E+00  0.00000000E+00  0.00000000E+00
  0.00000000E+00  0.00000000E+00  0.00000000E+00
  0.00000000E+00  0.00000000E+00  0.00000000E+00
  0.00000000E+00  0.00000000E+00  0.00000000E+00
  0.00000000E+00  0.00000000E+00  0.00000000E+00
  0.00000000E+00  0.00000000E+00  0.00000000E+00
  0.00000000E+00  0.00000000E+00  0.00000000E+00
  0.00000000E+00  0.00000000E+00  0.00000000E+00
  0.00000000E+00  0.00000000E+00  0.00000000E+00
  0.00000000E+00  0.00000000E+00  0.00000000E+00
  0.00000000E+00  0.00000000E+00  0.00000000E+00
  0.00000000E+00  0.00000000E+00  0.00000000E+00
  0.00000000E+00  0.00000000E+00  0.00000000E+00
  0.00000000E+00  0.00000000E+00  0.00000000E+00
  0.00000000E+00  0.00000000E+00  0.00000000E+00
  0.00000000E+00  0.00000000E+00  0.00000000E+00
  0.00000000E+00  0.00000000E+00  0.00000000E+00
  0.00000000E+00  0.00000000E+00  0.00000000E+00
  0.00000000E+00  0.00000000E+00  0.00000000E+00
  0.00000000E+00  0.00000000E+00  0.00000000E+00
  0.00000000E+00  0.00000000E+00  0.00000000E+00
  0.00000000E+00  0.00000000E+00  0.00000000E+00
  0.00000000E+00  0.00000000E+00  0.00000000E+00
  0.00000000E+00  0.00000000E+00  0.00000000E+00
  0.00000000E+00  0.00000000E+00  0.00000000E+00
  0.00000000E+00  0.00000000E+00  0.00000000E+00
  0.00000000E+00  0.00000000E+00  0.00000000E+00
  0.00000000E+00  0.00000000E+00  0.00000000E+00
  0.00000000E+00  0.00000000E+00  0.00000000E+00
  0.00000000E+00  0.00000000E+00  0.00000000E+00
  0.00000000E+00  0.00000000E+00  0.00000000E+00
  0.00000000E+00  0.00000000E+00  0.00000000E+00
  0.00000000E+00  0.00000000E+00  0.00000000E+00
  0.00000000E+00  0.00000000E+00  0.00000000E+00
  0.00000000E+00  0.00000000E+00  0.00000000E+00
  0.00000000E+00  0.00000000E+00  0.00000000E+00
  0.00000000E+00  0.00000000E+00  0.00000000E+00
  0.00000000E+00  0.00000000E+00  0.00000000E+00
  0.00000000E+00  0.00000000E+00  0.00000000E+00
  0.00000000E+00  0.00000000E+00  0.00000000E+00
  0.00000000E+00  0.00000000E+00  0.00000000E+00
  0.00000000E+00  0.00000000E+00  0.00000000E+00
  0.00000000E+00  0.00000000E+00  0.00000000E+00
  0.00000000E+00  0.00000000E+00  0.00000000E+00
  0.00000000E+00  0.00000000E+00  0.00000000E+00
  0.00000000E+00  0.00000000E+00  0.00000000E+00
  0.00000000E+00  0.00000000E+00  0.00000000E+00
  0.00000000E+00  0.00000000E+00  0.00000000E+00
  0.00000000E+00  0.00000000E+00  0.00000000E+00
  0.00000000E+00  0.00000000E+00  0.00000000E+00
  0.00000000E+00  0.00000000E+00  0.00000000E+00
  0.00000000E+00  0.00000000E+00  0.00000000E+00
  0.00000000E+00  0.00000000E+00  0.00000000E+00
  0.00000000E+00  0.00000000E+00  0.00000000E+00
  0.00000000E+00  0.00000000E+00  0.00000000E+00
  0.00000000E+00  0.00000000E+00  0.00000000E+00
  0.00000000E+00  0.00000000E+00  0.00000000E+00
  0.00000000E+00  0.00000000E+00  0.00000000E+00
  0.00000000E+00  0.00000000E+00  0.00000000E+00
  0.00000000E+00  0.00000000E+00  0.00000000E+00
  0.00000000E+00  0.00000000E+00  0.00000000E+00
  0.00000000E+00  0.00000000E+00  0.00000000E+00
  0.00000000E+00  0.00000000E+00  0.00000000E+00
  0.00000000E+00  0.00000000E+00  0.00000000E+00
  0.00000000E+00  0.00000000E+00  0.00000000E+00
  0.00000000E+00  0.00000000E+00  0.00000000E+00
  0.00000000E+00  0.00000000E+00  0.00000000E+00
  0.00000000E+00  0.00000000E+00  0.00000000E+00
  0.00000000E+00  0.00000000E+00  0.00000000E+00
  0.00000000E+00  0.00000000E+00  0.00000000E+00
  0.00000000E+00  0.00000000E+00  0.00000000E+00
  0.00000000E+00  0.00000000E+00  0.00000000E+00
  0.00000000E+00  0.00000000E+00  0.00000000E+00
  0.00000000E+00  0.00000000E+00  0.00000000E+00
  0.00000000E+00  0.00000000E+00  0.00000000E+00
  0.00000000E+00  0.00000000E+00  0.00000000E+00
  0.00000000E+00  0.00000000E+00  0.00000000E+00
  0.00000000E+00  0.00000000E+00  0.00000000E+00
  0.00000000E+00  0.00000000E+00  0.00000000E+00
  0.00000000E+00  0.00000000E+00  0.00000000E+00
  0.00000000E+00  0.00000000E+00  0.00000000E+00
  0.00000000E+00  0.00000000E+00  0.00000000E+00
  0.00000000E+00  0.00000000E+00  0.00000000E+00
  0.00000000E+00  0.00000000E+00  0.00000000E+00
  0.00000000E+00  0.00000000E+00  0.00000000E+00
  0.00000000E+00  0.00000000E+00  0.00000000E+00
  0.00000000E+00  0.00000000E+00  0.00000000E+00
  0.00000000E+00  0.00000000E+00  0.00000000E+00
  0.00000000E+00  0.00000000E+00  0.00000000E+00
  0.00000000E+00  0.00000000E+00  0.00000000E+00
  0.00000000E+00  0.00000000E+00  0.00000000E+00
  0.00000000E+00  0.00000000E+00  0.00000000E+00
  0.00000000E+00  0.00000000E+00  0.00000000E+00
  0.00000000E+00  0.00000000E+00  0.00000000E+00
  0.00000000E+00  0.00000000E+00  0.00000000E+00
  0.00000000E+00  0.00000000E+00  0.00000000E+00
  0.00000000E+00  0.00000000E+00  0.00000000E+00
  0.00000000E+00  0.00000000E+00  0.00000000E+00
  0.00000000E+00  0.00000000E+00  0.00000000E+00
