Primitive Cell                          
   1.00000000000000     
    32.0573355293052202    0.0424379430655083    0.0000000000000000
   -15.9914063330881984   27.6278707285083520    0.0000000000000000
     0.0000000000000000    0.0000000000000000   20.0000000000000000
   N    C    H 
     8    66    42
Direct
  0.3572380262299006  0.6741673286884193  0.5242375590664139
  0.0758251205092932  0.5416399450062386  0.5786914086268382
  0.5334414129196006  0.9567034845551348  0.5343932996430780
  0.4909752441249964  0.5256084127474239  0.5783114554154167
  0.5155568602239455  0.0597295489184475  0.5176482820840107
  0.5584526400088805  0.4909757346288330  0.4682107043526500
  0.6920482874783573  0.3422885897150891  0.5229907531664750
  0.9733875050937186  0.4743057371002948  0.4692549770536800
  0.3062810601199786  0.6481584866458121  0.5231118747169674
  0.2798196344662358  0.6640711132459600  0.5608153852685618
  0.2297595094070672  0.6387860149132365  0.5590897514232935
  0.2041343085695431  0.5966052657950982  0.5203327155302233
  0.2310530062383194  0.5809267585462123  0.4830826915894093
  0.2811187360389269  0.6061404084257589  0.4840935483107529
  0.1237930478839004  0.5650317122607760  0.5765174256831571
  0.1511066616442491  0.5698178311402060  0.5188297524871501
  0.1248661306014114  0.5474386014157560  0.4605180243761140
  0.0748867536052487  0.5227467191537158  0.4619447523937339
  0.0512488228001686  0.5206945211388998  0.5220950250647221
  0.3821514212051937  0.7253421475253745  0.5240768099830575
  0.3833989477509050  0.6492652606862208  0.5233389402951474
  0.3662778167516052  0.7507825178745975  0.4839340099794427
  0.3907523662724230  0.8010387048011083  0.4842531008425652
  0.4319991118919120  0.8279283003112070  0.5240717533131729
  0.4476323210789559  0.8019454197275593  0.5637887539447135
  0.4232602648874604  0.7516817814051393  0.5640601082518089
  0.4255675073687470  0.6666231325679846  0.4848799670800545
  0.4510725435441145  0.6419533707744165  0.4839279517847928
  0.4355419014234272  0.5990654717975872  0.5207058017530244
  0.3932949796883562  0.5820962290480836  0.5590721917015600
  0.3676994473195165  0.6066785787081770  0.5607118281702483
  0.5080074239360854  0.9085459088347321  0.5334122380875570
  0.4673921949445301  0.5501176324840387  0.5764421588626121
  0.4577136011975753  0.8811453255688377  0.5241373192602978
  0.4339040096693338  0.9076399596471347  0.5145892899061550
  0.4598876295270529  0.9578112074652694  0.5148762009741077
  0.5099294670596990  0.9814763476875044  0.5252974205838896
  0.4625461856495576  0.5729260457082361  0.5189916694679511
  0.4850755117306704  0.5694704716168317  0.4605955148970224
  0.5099129334421164  0.5442071246635436  0.4616870314278501
  0.5119806468135835  0.5222868532645037  0.5216008456690062
  0.5391192317149844  0.0349691181209906  0.5264609168227068
  0.5375100311331451  0.4943858590283128  0.5249430896603613
  0.5410757260406527  0.1078924972006874  0.5179128343038855
  0.6671816651111371  0.2910928579094403  0.5237571606673939
  0.6658560385200403  0.3671630098769896  0.5236421459678269
  0.7429919987203704  0.3683283338716805  0.5242818682726664
  0.7694648940130975  0.3522708427691157  0.4869170612264924
  0.8195098473638822  0.3774959085111931  0.4887916499568092
  0.8450977653939376  0.4197505456803157  0.5274001022025843
  0.8181737352331595  0.4356023679685634  0.5643001882805052
  0.7681050941142473  0.4104509272503520  0.5631081593652212
  0.6831197814147671  0.2659367685128515  0.5643893775470730
  0.6586112693759532  0.2156783300367522  0.5648273443849874
  0.6172590978986960  0.1885020015617087  0.5253256262735135
  0.6016171194428495  0.2141812602365007  0.4849818704606434
  0.6260470711787960  0.2644494380634654  0.4839260753252361
  0.6237193361648465  0.3499192288076358  0.5621377355237982
  0.5982489007405363  0.3746241626530775  0.5629226696936627
  0.6137736641571365  0.4174299501222052  0.5259463344391762
  0.6559809986823950  0.4342783410510620  0.4875255907816936
  0.6815437790779342  0.4096589479221606  0.4860503106990137
  0.5892382937181253  0.0586348170860234  0.5361223660482750
  0.6152832518397915  0.1088035259134728  0.5357331101668024
  0.5914647603495453  0.1352858648083739  0.5262048014404499
  0.5396195327940134  0.4725327412226363  0.5849002500621623
  0.5644212738333678  0.4472364059672671  0.5860243101343769
  0.5868540433088540  0.4436547927967425  0.5276080814432760
  0.9979648465516817  0.4952885567501752  0.5258298140217406
  0.9743321657125108  0.4933881704993084  0.5859160180771923
  0.9243506005111968  0.4688664193215573  0.5872793900864508
  0.8981189115858612  0.4464164796264285  0.5289937599922894
  0.5819813420613826  0.4664101424150076  0.4701191655841512
  0.9254339737948669  0.4509840740687565  0.4713846324586939
  0.3348111914019043  0.7307426657686378  0.4520284974666495
  0.2988541968808036  0.6966960270976941  0.5911021171879725
  0.2100728314200211  0.6523809707330059  0.5878162542980903
  0.3350122327243383  0.5927897631453902  0.5906603897101590
  0.3011521921302318  0.5932760931924790  0.4547855404014101
  0.2123532553743033  0.5480238720400479  0.4531746254668079
  0.1422265407944963  0.5805277187312754  0.6238635841334599
  0.1438289871331335  0.5503479195499068  0.4138748076161889
  0.0534137758923023  0.5054028315871761  0.4175990050735479
  0.3783910617118522  0.8198788778840296  0.4513198910018446
  0.4355928395384296  0.7323155218332218  0.5959261065905892
  0.4785831342358833  0.8214698578128292  0.5967830329937911
  0.4382937240316167  0.6997689515297338  0.4559713421722051
  0.4840809362829575  0.6565307803116411  0.4544694593779255
  0.3799072292313781  0.5486504248510329  0.5875508442118118
  0.5287810369076524  0.8900560645346260  0.5392035641650281
  0.4517467917425932  0.5527348289885836  0.6238259491655498
  0.3948680737708301  0.8887347231279392  0.5082148682057834
  0.4426129260749931  0.9794599374506348  0.5079563504880227
  0.4821546917608757  0.5857945605490045  0.4141456999003594
  0.5273659327717226  0.5403483835759459  0.4172716754198262
  0.5202968208162631  0.1263955348855532  0.5123463317566959
  0.6710007641597997  0.1970537921006894  0.5981301884602459
  0.7146594023895290  0.2861914216219503  0.5960889149745441
  0.6137387872879287  0.2835872594862607  0.4515626976158060
  0.5706154654428701  0.1943964323213265  0.4521436784452675
  0.7504196659001394  0.3195632953470167  0.4567990067151939
  0.8392145715847619  0.3638022793201827  0.4603181689470617
  0.6110299867169644  0.3168709204727023  0.5912617599176002
  0.5652957840536530  0.3601733367666000  0.5924788760325654
  0.6693889865014953  0.4676815297965291  0.4589351881174366
  0.7142247872795195  0.4234791225694323  0.4561113507924475
  0.7480312071415440  0.4234311790724732  0.5921071719347566
  0.8368419372747411  0.4685774471170134  0.5940678886647603
  0.6065732116240810  0.0370252210997037  0.5428567715607642
  0.6543696602841962  0.1277040876102333  0.5414730271784549
  0.5221969525442987  0.4764222680710404  0.6293233627291244
  0.5673601511069819  0.4309359416284479  0.6324802130943326
  0.9958197278408605  0.5107890197752027  0.6302269197190640
  0.9053847968754596  0.4661480746846394  0.6338544600632474
  0.5975182057261321  0.4636765642209681  0.4227077019375614
  0.9070055029660793  0.4353788038970237  0.4240626148962576
 
  0.00000000E+00  0.00000000E+00  0.00000000E+00
  0.00000000E+00  0.00000000E+00  0.00000000E+00
  0.00000000E+00  0.00000000E+00  0.00000000E+00
  0.00000000E+00  0.00000000E+00  0.00000000E+00
  0.00000000E+00  0.00000000E+00  0.00000000E+00
  0.00000000E+00  0.00000000E+00  0.00000000E+00
  0.00000000E+00  0.00000000E+00  0.00000000E+00
  0.00000000E+00  0.00000000E+00  0.00000000E+00
  0.00000000E+00  0.00000000E+00  0.00000000E+00
  0.00000000E+00  0.00000000E+00  0.00000000E+00
  0.00000000E+00  0.00000000E+00  0.00000000E+00
  0.00000000E+00  0.00000000E+00  0.00000000E+00
  0.00000000E+00  0.00000000E+00  0.00000000E+00
  0.00000000E+00  0.00000000E+00  0.00000000E+00
  0.00000000E+00  0.00000000E+00  0.00000000E+00
  0.00000000E+00  0.00000000E+00  0.00000000E+00
  0.00000000E+00  0.00000000E+00  0.00000000E+00
  0.00000000E+00  0.00000000E+00  0.00000000E+00
  0.00000000E+00  0.00000000E+00  0.00000000E+00
  0.00000000E+00  0.00000000E+00  0.00000000E+00
  0.00000000E+00  0.00000000E+00  0.00000000E+00
  0.00000000E+00  0.00000000E+00  0.00000000E+00
  0.00000000E+00  0.00000000E+00  0.00000000E+00
  0.00000000E+00  0.00000000E+00  0.00000000E+00
  0.00000000E+00  0.00000000E+00  0.00000000E+00
  0.00000000E+00  0.00000000E+00  0.00000000E+00
  0.00000000E+00  0.00000000E+00  0.00000000E+00
  0.00000000E+00  0.00000000E+00  0.00000000E+00
  0.00000000E+00  0.00000000E+00  0.00000000E+00
  0.00000000E+00  0.00000000E+00  0.00000000E+00
  0.00000000E+00  0.00000000E+00  0.00000000E+00
  0.00000000E+00  0.00000000E+00  0.00000000E+00
  0.00000000E+00  0.00000000E+00  0.00000000E+00
  0.00000000E+00  0.00000000E+00  0.00000000E+00
  0.00000000E+00  0.00000000E+00  0.00000000E+00
  0.00000000E+00  0.00000000E+00  0.00000000E+00
  0.00000000E+00  0.00000000E+00  0.00000000E+00
  0.00000000E+00  0.00000000E+00  0.00000000E+00
  0.00000000E+00  0.00000000E+00  0.00000000E+00
  0.00000000E+00  0.00000000E+00  0.00000000E+00
  0.00000000E+00  0.00000000E+00  0.00000000E+00
  0.00000000E+00  0.00000000E+00  0.00000000E+00
  0.00000000E+00  0.00000000E+00  0.00000000E+00
  0.00000000E+00  0.00000000E+00  0.00000000E+00
  0.00000000E+00  0.00000000E+00  0.00000000E+00
  0.00000000E+00  0.00000000E+00  0.00000000E+00
  0.00000000E+00  0.00000000E+00  0.00000000E+00
  0.00000000E+00  0.00000000E+00  0.00000000E+00
  0.00000000E+00  0.00000000E+00  0.00000000E+00
  0.00000000E+00  0.00000000E+00  0.00000000E+00
  0.00000000E+00  0.00000000E+00  0.00000000E+00
  0.00000000E+00  0.00000000E+00  0.00000000E+00
  0.00000000E+00  0.00000000E+00  0.00000000E+00
  0.00000000E+00  0.00000000E+00  0.00000000E+00
  0.00000000E+00  0.00000000E+00  0.00000000E+00
  0.00000000E+00  0.00000000E+00  0.00000000E+00
  0.00000000E+00  0.00000000E+00  0.00000000E+00
  0.00000000E+00  0.00000000E+00  0.00000000E+00
  0.00000000E+00  0.00000000E+00  0.00000000E+00
  0.00000000E+00  0.00000000E+00  0.00000000E+00
  0.00000000E+00  0.00000000E+00  0.00000000E+00
  0.00000000E+00  0.00000000E+00  0.00000000E+00
  0.00000000E+00  0.00000000E+00  0.00000000E+00
  0.00000000E+00  0.00000000E+00  0.00000000E+00
  0.00000000E+00  0.00000000E+00  0.00000000E+00
  0.00000000E+00  0.00000000E+00  0.00000000E+00
  0.00000000E+00  0.00000000E+00  0.00000000E+00
  0.00000000E+00  0.00000000E+00  0.00000000E+00
  0.00000000E+00  0.00000000E+00  0.00000000E+00
  0.00000000E+00  0.00000000E+00  0.00000000E+00
  0.00000000E+00  0.00000000E+00  0.00000000E+00
  0.00000000E+00  0.00000000E+00  0.00000000E+00
  0.00000000E+00  0.00000000E+00  0.00000000E+00
  0.00000000E+00  0.00000000E+00  0.00000000E+00
  0.00000000E+00  0.00000000E+00  0.00000000E+00
  0.00000000E+00  0.00000000E+00  0.00000000E+00
  0.00000000E+00  0.00000000E+00  0.00000000E+00
  0.00000000E+00  0.00000000E+00  0.00000000E+00
  0.00000000E+00  0.00000000E+00  0.00000000E+00
  0.00000000E+00  0.00000000E+00  0.00000000E+00
  0.00000000E+00  0.00000000E+00  0.00000000E+00
  0.00000000E+00  0.00000000E+00  0.00000000E+00
  0.00000000E+00  0.00000000E+00  0.00000000E+00
  0.00000000E+00  0.00000000E+00  0.00000000E+00
  0.00000000E+00  0.00000000E+00  0.00000000E+00
  0.00000000E+00  0.00000000E+00  0.00000000E+00
  0.00000000E+00  0.00000000E+00  0.00000000E+00
  0.00000000E+00  0.00000000E+00  0.00000000E+00
  0.00000000E+00  0.00000000E+00  0.00000000E+00
  0.00000000E+00  0.00000000E+00  0.00000000E+00
  0.00000000E+00  0.00000000E+00  0.00000000E+00
  0.00000000E+00  0.00000000E+00  0.00000000E+00
  0.00000000E+00  0.00000000E+00  0.00000000E+00
  0.00000000E+00  0.00000000E+00  0.00000000E+00
  0.00000000E+00  0.00000000E+00  0.00000000E+00
  0.00000000E+00  0.00000000E+00  0.00000000E+00
  0.00000000E+00  0.00000000E+00  0.00000000E+00
  0.00000000E+00  0.00000000E+00  0.00000000E+00
  0.00000000E+00  0.00000000E+00  0.00000000E+00
  0.00000000E+00  0.00000000E+00  0.00000000E+00
  0.00000000E+00  0.00000000E+00  0.00000000E+00
  0.00000000E+00  0.00000000E+00  0.00000000E+00
  0.00000000E+00  0.00000000E+00  0.00000000E+00
  0.00000000E+00  0.00000000E+00  0.00000000E+00
  0.00000000E+00  0.00000000E+00  0.00000000E+00
  0.00000000E+00  0.00000000E+00  0.00000000E+00
  0.00000000E+00  0.00000000E+00  0.00000000E+00
  0.00000000E+00  0.00000000E+00  0.00000000E+00
  0.00000000E+00  0.00000000E+00  0.00000000E+00
  0.00000000E+00  0.00000000E+00  0.00000000E+00
  0.00000000E+00  0.00000000E+00  0.00000000E+00
  0.00000000E+00  0.00000000E+00  0.00000000E+00
  0.00000000E+00  0.00000000E+00  0.00000000E+00
  0.00000000E+00  0.00000000E+00  0.00000000E+00
  0.00000000E+00  0.00000000E+00  0.00000000E+00
  0.00000000E+00  0.00000000E+00  0.00000000E+00
