Primitive Cell                          
   1.00000000000000     
    24.4561623999163125   -0.0178038317283736    0.0000000000000000
   -12.2435331913492433   21.2177973367447024    0.0000000000000000
     0.0000000000000000    0.0000000000000000   20.0000000000000000
   C    H    N 
    48    30     8
Direct
  0.6631489130937567  0.4131484909675365  0.5240112386690043
  0.7640616379584628  0.4137294968013094  0.5229922273087695
  0.6644838092343122  0.3137555421608624  0.5234714304249621
  0.6718635704635645  0.2813369588419192  0.4695852618482590
  0.6390604919989329  0.2157623825231951  0.4685733675160009
  0.5999225322112665  0.1812904000936939  0.5222873297490338
  0.5935728478919060  0.2141023103578021  0.5765669758479106
  0.6248322906392119  0.2797786524554695  0.5768381808324747
  0.6868172450967478  0.4713114040502688  0.5573231451864658
  0.6525766704991440  0.5026134421709259  0.5577510497593892
  0.5943879560014125  0.4777901980430954  0.5242334045272372
  0.5713020901225860  0.4199730475291119  0.4905884668138114
  0.6044786196914984  0.3876436983633695  0.4910547032359318
  0.7979807946973736  0.4644881178932039  0.4789112690148514
  0.8635661010909175  0.4958606235178280  0.4780324255753428
  0.8971938412143530  0.4786585980634683  0.5221360154309806
  0.8630386731614195  0.4278797871333353  0.5659411064466937
  0.7972936088049991  0.3952211321640036  0.5659451482917959
  0.3974430848815516  0.6803505306030999  0.5207874087611160
  0.2977405905871677  0.6805619999328414  0.5215275759091966
  0.3985907893549836  0.7809744871700133  0.5202523225213511
  0.4576784020236957  0.8140374379050073  0.5524403474502364
  0.4908151580124027  0.8795247999900440  0.5532029042483586
  0.4672419916225508  0.9143949466565928  0.5207185594661254
  0.4085929100409942  0.8811312079121834  0.4880372226789547
  0.3744310415365959  0.8156182891944965  0.4881015006763505
  0.4375707520028982  0.6861852748511978  0.4678392182115161
  0.4688320134613022  0.6517640152348534  0.4684919254766982
  0.4619644108955612  0.6123548143954878  0.5227152479141708
  0.4225549902889085  0.6077392468087410  0.5761455384770358
  0.3898426466812879  0.6406160955055711  0.5748036776061696
  0.2642492924644415  0.6291225950987069  0.4783206248130014
  0.1985016057742968  0.5959003973323433  0.4789960308728567
  0.1646070831077537  0.6120515566971036  0.5237548323665919
  0.1985050530233252  0.6625321063563447  0.5681234830324229
  0.2640892388234448  0.6969126052265011  0.5665547469271530
  0.5583368324160674  0.5111554477459066  0.5239354504869169
  0.5542387539171258  0.5427118261926509  0.5810819600214714
  0.4952878287147300  0.5760846166848523  0.5240450703993034
  0.9668205059708086  0.5137126467043913  0.5221328382403527
  0.0018207715133656  0.5312772774774004  0.5820782412765908
  0.0949429828442661  0.5775776446082119  0.5240604461195204
  0.5663117080769879  0.1117021395648194  0.5210761509247561
  0.5664586968900309  0.0763297660778974  0.5764492832317174
  0.5032324799952832  0.9837851859406896  0.5211758519979597
  0.4964883317528219  0.5418742391748523  0.4680595638848004
  0.0599422209974492  0.5621020887071637  0.4641816435595345
  0.5057852861394991  0.0194336190474189  0.4646216706570883
  0.6719869770845861  0.5477655548588842  0.5836555734334681
  0.7322223095892753  0.4916611110346238  0.5828447538929709
  0.5856373506119823  0.3425785934845678  0.4652090928200394
  0.5266241746924862  0.4006466757683427  0.4637383646892062
  0.7029628025469847  0.3082424052308141  0.4283823852528528
  0.6433451148768157  0.1903339543349745  0.4260102944574413
  0.7722042673294354  0.4785674723228084  0.4451643825497413
  0.8898338691837679  0.5343554651047810  0.4429077253468634
  0.8882521316317238  0.4130834968354478  0.5997058244659144
  0.7711129463595228  0.3552845529197910  0.5994551341287391
  0.6189459574517215  0.3053185980435558  0.6183043267018178
  0.5628501675774586  0.1878429055598758  0.6183044492926300
  0.4999218947929336  0.6563679295636007  0.4270791416168862
  0.4438342909971809  0.7177559693433153  0.4263964506771174
  0.3585903730109763  0.6364413745877471  0.6158273738952715
  0.4180196848893161  0.5779614743117278  0.6187331898840966
  0.4769273644955092  0.7877685755615431  0.5774434059689426
  0.5358638756069709  0.9047952781616786  0.5793967577354096
  0.2902247617467566  0.6157490107223111  0.4440426390212977
  0.1730555612618758  0.5561409212758122  0.4450020808491928
  0.1724877697185221  0.6744360177283184  0.6039494933393996
  0.2900624530006297  0.7365806218290700  0.6004453616614924
  0.3286976530454098  0.7906934923182192  0.4631889513505030
  0.3887336360063856  0.9069345832866702  0.4631053086289683
  0.5758790379359482  0.5407634506084449  0.6282270642523144
  0.9776491345602309  0.5203053787607175  0.6304128561314855
  0.5934157412853338  0.1001351586929005  0.6213885707577163
  0.4705774555892717  0.5397632249206907  0.4226240991465673
  0.0841532927716031  0.5767871391611692  0.4159635685883813
  0.4827820974750239  0.9958759887177493  0.4179338491814590
  0.6972352738265926  0.3809567921702808  0.5236427946757374
  0.3646016794739424  0.7147338351224874  0.5201129977205809
  0.5230827516850027  0.5744396198819501  0.5817043406794298
  0.0647949178850169  0.5631130201284620  0.5835128197815749
  0.5359837145424109  0.0134502159877670  0.5767868882615090
  0.5270032467324128  0.5094894656795645  0.4676671604748961
  0.9969711419821721  0.5311965986511993  0.4627587582859221
  0.5369219790633295  0.0822673894003501  0.4639906676239249
 
  0.00000000E+00  0.00000000E+00  0.00000000E+00
  0.00000000E+00  0.00000000E+00  0.00000000E+00
  0.00000000E+00  0.00000000E+00  0.00000000E+00
  0.00000000E+00  0.00000000E+00  0.00000000E+00
  0.00000000E+00  0.00000000E+00  0.00000000E+00
  0.00000000E+00  0.00000000E+00  0.00000000E+00
  0.00000000E+00  0.00000000E+00  0.00000000E+00
  0.00000000E+00  0.00000000E+00  0.00000000E+00
  0.00000000E+00  0.00000000E+00  0.00000000E+00
  0.00000000E+00  0.00000000E+00  0.00000000E+00
  0.00000000E+00  0.00000000E+00  0.00000000E+00
  0.00000000E+00  0.00000000E+00  0.00000000E+00
  0.00000000E+00  0.00000000E+00  0.00000000E+00
  0.00000000E+00  0.00000000E+00  0.00000000E+00
  0.00000000E+00  0.00000000E+00  0.00000000E+00
  0.00000000E+00  0.00000000E+00  0.00000000E+00
  0.00000000E+00  0.00000000E+00  0.00000000E+00
  0.00000000E+00  0.00000000E+00  0.00000000E+00
  0.00000000E+00  0.00000000E+00  0.00000000E+00
  0.00000000E+00  0.00000000E+00  0.00000000E+00
  0.00000000E+00  0.00000000E+00  0.00000000E+00
  0.00000000E+00  0.00000000E+00  0.00000000E+00
  0.00000000E+00  0.00000000E+00  0.00000000E+00
  0.00000000E+00  0.00000000E+00  0.00000000E+00
  0.00000000E+00  0.00000000E+00  0.00000000E+00
  0.00000000E+00  0.00000000E+00  0.00000000E+00
  0.00000000E+00  0.00000000E+00  0.00000000E+00
  0.00000000E+00  0.00000000E+00  0.00000000E+00
  0.00000000E+00  0.00000000E+00  0.00000000E+00
  0.00000000E+00  0.00000000E+00  0.00000000E+00
  0.00000000E+00  0.00000000E+00  0.00000000E+00
  0.00000000E+00  0.00000000E+00  0.00000000E+00
  0.00000000E+00  0.00000000E+00  0.00000000E+00
  0.00000000E+00  0.00000000E+00  0.00000000E+00
  0.00000000E+00  0.00000000E+00  0.00000000E+00
  0.00000000E+00  0.00000000E+00  0.00000000E+00
  0.00000000E+00  0.00000000E+00  0.00000000E+00
  0.00000000E+00  0.00000000E+00  0.00000000E+00
  0.00000000E+00  0.00000000E+00  0.00000000E+00
  0.00000000E+00  0.00000000E+00  0.00000000E+00
  0.00000000E+00  0.00000000E+00  0.00000000E+00
  0.00000000E+00  0.00000000E+00  0.00000000E+00
  0.00000000E+00  0.00000000E+00  0.00000000E+00
  0.00000000E+00  0.00000000E+00  0.00000000E+00
  0.00000000E+00  0.00000000E+00  0.00000000E+00
  0.00000000E+00  0.00000000E+00  0.00000000E+00
  0.00000000E+00  0.00000000E+00  0.00000000E+00
  0.00000000E+00  0.00000000E+00  0.00000000E+00
  0.00000000E+00  0.00000000E+00  0.00000000E+00
  0.00000000E+00  0.00000000E+00  0.00000000E+00
  0.00000000E+00  0.00000000E+00  0.00000000E+00
  0.00000000E+00  0.00000000E+00  0.00000000E+00
  0.00000000E+00  0.00000000E+00  0.00000000E+00
  0.00000000E+00  0.00000000E+00  0.00000000E+00
  0.00000000E+00  0.00000000E+00  0.00000000E+00
  0.00000000E+00  0.00000000E+00  0.00000000E+00
  0.00000000E+00  0.00000000E+00  0.00000000E+00
  0.00000000E+00  0.00000000E+00  0.00000000E+00
  0.00000000E+00  0.00000000E+00  0.00000000E+00
  0.00000000E+00  0.00000000E+00  0.00000000E+00
  0.00000000E+00  0.00000000E+00  0.00000000E+00
  0.00000000E+00  0.00000000E+00  0.00000000E+00
  0.00000000E+00  0.00000000E+00  0.00000000E+00
  0.00000000E+00  0.00000000E+00  0.00000000E+00
  0.00000000E+00  0.00000000E+00  0.00000000E+00
  0.00000000E+00  0.00000000E+00  0.00000000E+00
  0.00000000E+00  0.00000000E+00  0.00000000E+00
  0.00000000E+00  0.00000000E+00  0.00000000E+00
  0.00000000E+00  0.00000000E+00  0.00000000E+00
  0.00000000E+00  0.00000000E+00  0.00000000E+00
  0.00000000E+00  0.00000000E+00  0.00000000E+00
  0.00000000E+00  0.00000000E+00  0.00000000E+00
  0.00000000E+00  0.00000000E+00  0.00000000E+00
  0.00000000E+00  0.00000000E+00  0.00000000E+00
  0.00000000E+00  0.00000000E+00  0.00000000E+00
  0.00000000E+00  0.00000000E+00  0.00000000E+00
  0.00000000E+00  0.00000000E+00  0.00000000E+00
  0.00000000E+00  0.00000000E+00  0.00000000E+00
  0.00000000E+00  0.00000000E+00  0.00000000E+00
  0.00000000E+00  0.00000000E+00  0.00000000E+00
  0.00000000E+00  0.00000000E+00  0.00000000E+00
  0.00000000E+00  0.00000000E+00  0.00000000E+00
  0.00000000E+00  0.00000000E+00  0.00000000E+00
  0.00000000E+00  0.00000000E+00  0.00000000E+00
  0.00000000E+00  0.00000000E+00  0.00000000E+00
  0.00000000E+00  0.00000000E+00  0.00000000E+00
