Primitive Cell                          
   1.00000000000000     
    24.5214066900435839    0.0078003735149857    0.0000000000000000
   -12.2539398678248670   21.1872660987788279    0.0000000000000000
     0.0000000000000000    0.0000000000000000   20.0000000000000000
   H    O    N    C 
    36     3     8    51
Direct
  0.3336291698587743  0.8736389799594164  0.4057424265669525
  0.2729778635955569  0.7576689302980455  0.4079034681478362
  0.4084864114977194  0.7554727808677839  0.5436206979506224
  0.4702182268053576  0.8725314812248541  0.5401994874458893
  0.4079140777303323  0.7116028355273727  0.4078652398653801
  0.4637936209483513  0.6516790811573259  0.4058974484053977
  0.2287214151143360  0.7141276919013819  0.5433560026020601
  0.1118741728109285  0.6585030820923805  0.5405407543734313
  0.1106053295604283  0.5200216317182864  0.4067455345345650
  0.2263488418740280  0.5755261790412476  0.4084603185686504
  0.2704912984051049  0.5751792003514495  0.5434205305223543
  0.3265078780605464  0.5142567020118491  0.5403456446942982
  0.6133629441128576  0.1589368735683365  0.5537820020261961
  0.6666386953351449  0.2752196191471512  0.5583992917183593
  0.5357562588610705  0.2736245993702866  0.4135144452925985
  0.4832179726578971  0.1565760683722743  0.4074458940049084
  0.5320820123618546  0.3182092929681772  0.5582155994633737
  0.4697104505771037  0.3720061170331732  0.5539739029497071
  0.7114716423730627  0.3233517859528874  0.4141213670058832
  0.8283293561189282  0.3874088635399389  0.4089078051267876
  0.8258135142109211  0.5153584403576517  0.5552216657879399
  0.7096458921823157  0.4528686656111418  0.5589175312767907
  0.6619421235751304  0.4497087086021523  0.4138486031156461
  0.5979977501067637  0.5027020594593949  0.4080966622841515
  0.3847820528239794  0.9486845152144170  0.3342638576827923
  0.4619683826174636  0.0043767983209051  0.3080442594054702
  0.4229609527359059  0.8788413562838500  0.3489075918390085
  0.0357601056827548  0.4965586068520764  0.3354114934669923
  0.9794371586295867  0.5172898752539652  0.3094148102596606
  0.1045043601001865  0.6050142893518924  0.3499490306223123
  0.4874297487489869  0.6003454853869670  0.3344268298257660
  0.4664970004853330  0.5230968301980710  0.3084718273256541
  0.3792836228198198  0.5607680571642177  0.3498075318850766
  0.5303354254635195  0.0622937836630513  0.5786607360261158
  0.9228128612727815  0.5281213198835246  0.5805641530463603
  0.4578632158348768  0.4565862947427561  0.5796985390953893
  0.4495605072286040  0.9168038215470986  0.3229028482897434
  0.0665759693235302  0.5931102697001052  0.3237632038637415
  0.3909581780673648  0.5345775197231788  0.3235361185318908
  0.3024011734523029  0.6815191564229508  0.4763384227550418
  0.6362177933035085  0.3488455037230409  0.4883856522473522
  0.4859973090550653  0.0525660635426064  0.4173759971939077
  0.9319025484083596  0.4938452136603644  0.4189801114247587
  0.4910007817303779  0.4994987263158208  0.4178729992177566
  0.4751872058192106  0.9789527820670685  0.5279056062195622
  0.0057384485040970  0.5561863563538125  0.5292539013188957
  0.4289701077387349  0.5109827268132818  0.5286065316544892
  0.3369797254647011  0.7483030375124216  0.4751306484505022
  0.2357809652853504  0.6493356812708484  0.4752748531283189
  0.3346533121838746  0.6470954743757389  0.4750165882367909
  0.3894319069019545  0.6679646694297929  0.4364190450236478
  0.4204593408758868  0.6334108761057848  0.4349134950453788
  0.3977412943202623  0.5767636498031905  0.4710232674236252
  0.3435345082987951  0.5570190555079648  0.5105315109528448
  0.3124663652260296  0.5913396950410501  0.5125750299452818
  0.3165539996878266  0.7825973841698470  0.4364651379649089
  0.3515447577005730  0.8482528638075237  0.4348205084882011
  0.4081932395878525  0.8818644243473273  0.4708296985517322
  0.4274504110793984  0.8470213712333461  0.5104786539878461
  0.3926769143370876  0.7815841684875409  0.5127105174060773
  0.2026181199804853  0.6719591354371204  0.5127442722832356
  0.1372853105361642  0.6411146997703483  0.5108392855539421
  0.1024591755432738  0.5866951215650431  0.4715749609366995
  0.1359673941036021  0.5635270352868034  0.4355785879790375
  0.2015061905519531  0.5943168914590942  0.4369624179304523
  0.6046598177210143  0.2821594105743088  0.4864474441225681
  0.7028088006710007  0.3838714147456344  0.4869350788101698
  0.6012904322766985  0.3805166273709872  0.4865582193387681
  0.5469230755750303  0.3591909971475715  0.5259778526147088
  0.5121367975148914  0.3898376937642780  0.5234793817830692
  0.5300505589621096  0.4420762364803892  0.4812633940326094
  0.5843951748548761  0.4629206105755443  0.4418088831378455
  0.6198837126191350  0.4330954461230121  0.4446681724327846
  0.6259068551996236  0.2490420179238200  0.5259561610266061
  0.5955481341533471  0.1835492644028847  0.5232370179470820
  0.5436173651351055  0.1491901500093462  0.4807535622143178
  0.5227848321029214  0.1827649283605695  0.4413136009233796
  0.5523583293155454  0.2481490833012217  0.4443554802811462
  0.7368380727200758  0.3653739493326995  0.4451301011440592
  0.8021219476507113  0.4008998020773262  0.4426017863531797
  0.8356043967823155  0.4552086573473204  0.4822805705413415
  0.8012578629817355  0.4729903374575244  0.5244960585827627
  0.7358213069689441  0.4381457502228159  0.5266797797401068
  0.4465409057668523  0.9515362289727349  0.4697780801155815
  0.5117794467943071  0.0798646532277445  0.4763529890744351
  0.4553308407704364  0.9895955440896600  0.4126438437106401
  0.4352531307923186  0.9644209535302224  0.3419594929741621
  0.0328938000600232  0.5551620983841445  0.4709209870450763
  0.9048302766166216  0.4923947650898270  0.4780494661990602
  0.9947093937005818  0.5259682840080870  0.4139102532959669
  0.0195560312831233  0.5309814663944152  0.3431142612119444
  0.4295678694208718  0.5389540640349537  0.4702253580475357
  0.4928377954435774  0.4741065282554402  0.4769944793430909
  0.4586158672431040  0.5299958897801105  0.4130645338585026
  0.4531008931057912  0.5496839494946286  0.3423451217868561
  0.5078284826455075  0.0416198688286684  0.5308598235583943
  0.9431979056116688  0.5263582327932284  0.5325535274239215
  0.4591231272941982  0.4785403389691112  0.5316943847923241
 
  0.00000000E+00  0.00000000E+00  0.00000000E+00
  0.00000000E+00  0.00000000E+00  0.00000000E+00
  0.00000000E+00  0.00000000E+00  0.00000000E+00
  0.00000000E+00  0.00000000E+00  0.00000000E+00
  0.00000000E+00  0.00000000E+00  0.00000000E+00
  0.00000000E+00  0.00000000E+00  0.00000000E+00
  0.00000000E+00  0.00000000E+00  0.00000000E+00
  0.00000000E+00  0.00000000E+00  0.00000000E+00
  0.00000000E+00  0.00000000E+00  0.00000000E+00
  0.00000000E+00  0.00000000E+00  0.00000000E+00
  0.00000000E+00  0.00000000E+00  0.00000000E+00
  0.00000000E+00  0.00000000E+00  0.00000000E+00
  0.00000000E+00  0.00000000E+00  0.00000000E+00
  0.00000000E+00  0.00000000E+00  0.00000000E+00
  0.00000000E+00  0.00000000E+00  0.00000000E+00
  0.00000000E+00  0.00000000E+00  0.00000000E+00
  0.00000000E+00  0.00000000E+00  0.00000000E+00
  0.00000000E+00  0.00000000E+00  0.00000000E+00
  0.00000000E+00  0.00000000E+00  0.00000000E+00
  0.00000000E+00  0.00000000E+00  0.00000000E+00
  0.00000000E+00  0.00000000E+00  0.00000000E+00
  0.00000000E+00  0.00000000E+00  0.00000000E+00
  0.00000000E+00  0.00000000E+00  0.00000000E+00
  0.00000000E+00  0.00000000E+00  0.00000000E+00
  0.00000000E+00  0.00000000E+00  0.00000000E+00
  0.00000000E+00  0.00000000E+00  0.00000000E+00
  0.00000000E+00  0.00000000E+00  0.00000000E+00
  0.00000000E+00  0.00000000E+00  0.00000000E+00
  0.00000000E+00  0.00000000E+00  0.00000000E+00
  0.00000000E+00  0.00000000E+00  0.00000000E+00
  0.00000000E+00  0.00000000E+00  0.00000000E+00
  0.00000000E+00  0.00000000E+00  0.00000000E+00
  0.00000000E+00  0.00000000E+00  0.00000000E+00
  0.00000000E+00  0.00000000E+00  0.00000000E+00
  0.00000000E+00  0.00000000E+00  0.00000000E+00
  0.00000000E+00  0.00000000E+00  0.00000000E+00
  0.00000000E+00  0.00000000E+00  0.00000000E+00
  0.00000000E+00  0.00000000E+00  0.00000000E+00
  0.00000000E+00  0.00000000E+00  0.00000000E+00
  0.00000000E+00  0.00000000E+00  0.00000000E+00
  0.00000000E+00  0.00000000E+00  0.00000000E+00
  0.00000000E+00  0.00000000E+00  0.00000000E+00
  0.00000000E+00  0.00000000E+00  0.00000000E+00
  0.00000000E+00  0.00000000E+00  0.00000000E+00
  0.00000000E+00  0.00000000E+00  0.00000000E+00
  0.00000000E+00  0.00000000E+00  0.00000000E+00
  0.00000000E+00  0.00000000E+00  0.00000000E+00
  0.00000000E+00  0.00000000E+00  0.00000000E+00
  0.00000000E+00  0.00000000E+00  0.00000000E+00
  0.00000000E+00  0.00000000E+00  0.00000000E+00
  0.00000000E+00  0.00000000E+00  0.00000000E+00
  0.00000000E+00  0.00000000E+00  0.00000000E+00
  0.00000000E+00  0.00000000E+00  0.00000000E+00
  0.00000000E+00  0.00000000E+00  0.00000000E+00
  0.00000000E+00  0.00000000E+00  0.00000000E+00
  0.00000000E+00  0.00000000E+00  0.00000000E+00
  0.00000000E+00  0.00000000E+00  0.00000000E+00
  0.00000000E+00  0.00000000E+00  0.00000000E+00
  0.00000000E+00  0.00000000E+00  0.00000000E+00
  0.00000000E+00  0.00000000E+00  0.00000000E+00
  0.00000000E+00  0.00000000E+00  0.00000000E+00
  0.00000000E+00  0.00000000E+00  0.00000000E+00
  0.00000000E+00  0.00000000E+00  0.00000000E+00
  0.00000000E+00  0.00000000E+00  0.00000000E+00
  0.00000000E+00  0.00000000E+00  0.00000000E+00
  0.00000000E+00  0.00000000E+00  0.00000000E+00
  0.00000000E+00  0.00000000E+00  0.00000000E+00
  0.00000000E+00  0.00000000E+00  0.00000000E+00
  0.00000000E+00  0.00000000E+00  0.00000000E+00
  0.00000000E+00  0.00000000E+00  0.00000000E+00
  0.00000000E+00  0.00000000E+00  0.00000000E+00
  0.00000000E+00  0.00000000E+00  0.00000000E+00
  0.00000000E+00  0.00000000E+00  0.00000000E+00
  0.00000000E+00  0.00000000E+00  0.00000000E+00
  0.00000000E+00  0.00000000E+00  0.00000000E+00
  0.00000000E+00  0.00000000E+00  0.00000000E+00
  0.00000000E+00  0.00000000E+00  0.00000000E+00
  0.00000000E+00  0.00000000E+00  0.00000000E+00
  0.00000000E+00  0.00000000E+00  0.00000000E+00
  0.00000000E+00  0.00000000E+00  0.00000000E+00
  0.00000000E+00  0.00000000E+00  0.00000000E+00
  0.00000000E+00  0.00000000E+00  0.00000000E+00
  0.00000000E+00  0.00000000E+00  0.00000000E+00
  0.00000000E+00  0.00000000E+00  0.00000000E+00
  0.00000000E+00  0.00000000E+00  0.00000000E+00
  0.00000000E+00  0.00000000E+00  0.00000000E+00
  0.00000000E+00  0.00000000E+00  0.00000000E+00
  0.00000000E+00  0.00000000E+00  0.00000000E+00
  0.00000000E+00  0.00000000E+00  0.00000000E+00
  0.00000000E+00  0.00000000E+00  0.00000000E+00
  0.00000000E+00  0.00000000E+00  0.00000000E+00
  0.00000000E+00  0.00000000E+00  0.00000000E+00
  0.00000000E+00  0.00000000E+00  0.00000000E+00
  0.00000000E+00  0.00000000E+00  0.00000000E+00
  0.00000000E+00  0.00000000E+00  0.00000000E+00
  0.00000000E+00  0.00000000E+00  0.00000000E+00
  0.00000000E+00  0.00000000E+00  0.00000000E+00
  0.00000000E+00  0.00000000E+00  0.00000000E+00
