Primitive Cell                          
   1.00000000000000     
    29.6814810613649200   -0.0070726530234903    0.0000000000000000
   -14.8468652500371885   25.7098764927949723    0.0000000000000000
     0.0000000000000000    0.0000000000000000   20.0000000000000000
   H    O    N    C 
    33     6     9    60
Direct
  0.4963227868883919  0.0484864982040065  0.4100216194531043
  0.5099209512741041  0.1272419759528347  0.4338974657569494
  0.6145602270435404  0.1262120299800955  0.5827157555990112
  0.5594801682762593  0.2228845434222890  0.4319530811201275
  0.6645609399954751  0.2227149274852422  0.5805673116592587
  0.7921062807055890  0.3489357189916618  0.4315527019637884
  0.8878290975746808  0.3952714321496060  0.4333771419533505
  0.7921594112848069  0.4534581950527894  0.5811804604944015
  0.8887442135993879  0.5001552058291665  0.5832425738137914
  0.6664209031380892  0.4554611746006785  0.4321270456299189
  0.6204044697201851  0.5050493234173175  0.4342405734471768
  0.5147231907619769  0.4004394227925090  0.5830870119981029
  0.5612085429295988  0.3504380824642510  0.5808517374914146
  0.5759398134486204  0.2944481665317085  0.5057357686282060
  0.7205176998418921  0.2934603196524250  0.5055889592810274
  0.7215731630874345  0.4390132200871477  0.5058915977870981
  0.5056590304542965  0.8898340506002000  0.5776829400826315
  0.4573869946828211  0.7946361728040259  0.5760905153737070
  0.3914583124657298  0.8925584885455962  0.4468511790956740
  0.3433798994427377  0.7962073588119125  0.4439103190878413
  0.2206578925100615  0.6742947762903739  0.5768008145324330
  0.1254274928860966  0.6277755029471095  0.5779832631653434
  0.2186691224618613  0.5594891752360596  0.4428582215086081
  0.1222662164316404  0.5117000490724308  0.4451664961325861
  0.3404102185280848  0.5577915728577381  0.5759353772180020
  0.3871908277653446  0.5094082857307356  0.5774795695429020
  0.5045166246200878  0.6237069171562553  0.4471066675638937
  0.4563056667629155  0.6718511944105998  0.4440701943289369
  0.4361266776247774  0.7232746185175074  0.5100029411778380
  0.2918543914854297  0.7246766841186556  0.5100728944490953
  0.2903801590961876  0.5789951179949639  0.5097207740942338
  0.5554009647907705  0.5186344460962715  0.4102958007943371
  0.9661082557362874  0.4619620635288442  0.4085993242434540
  0.4240983592748151  0.4650941777611166  0.6536384937206776
  0.4808835574781867  0.5487183358962966  0.6657357455160735
  0.0440336026304493  0.5893251644073203  0.6549366252374114
  0.0710752958571206  0.5325449260896633  0.6646241358065978
  0.5496406708716890  0.9717669490816050  0.6545545844831508
  0.4657082000380441  0.9439848713798042  0.6654491819217654
  0.5327886223824265  0.0390590299758031  0.5665694741187579
  0.5091279316227144  0.4820832073489072  0.5666826955305098
  0.4608699081225467  0.5071129384731918  0.6348116037053444
  0.9760382833759778  0.5055221096011167  0.5665259697979721
  0.0493998088665961  0.5529431823422399  0.6347655999930382
  0.5075511385007303  0.9659322481847781  0.6350284722307151
  0.5075446567799204  0.5399180753337660  0.4584255619561546
  0.0353406866013941  0.5090435904147483  0.4570746513084387
  0.4749771039769684  0.9794220680549728  0.4583816229490054
  0.5301518527164077  0.0625122889242533  0.5101436330602453
  0.4997653157991735  0.0311201601797038  0.4565111939436903
  0.5441809993067039  0.1477352835144359  0.4657025682927340
  0.5593187925152279  0.1197501060543971  0.5079061057926779
  0.6030874179876662  0.1476642952807481  0.5491828267169154
  0.6449267373709873  0.2874145547530347  0.5054483348149432
  0.6183995895895222  0.3154547491499784  0.5055085651292046
  0.6455072441142278  0.3700271393455665  0.5055803561682950
  0.7000939098254690  0.3965612614174461  0.5055801242760154
  0.7275568028070509  0.3694661282909735  0.5055216539781995
  0.6995087763027641  0.3148970235832280  0.5054347753074637
  0.6171178040572940  0.3991756060212737  0.5061293975685786
  0.5737426680261422  0.3839636664463200  0.5479732056110151
  0.5476543665338554  0.4119196612611375  0.5495300759611155
  0.5635029115004571  0.4556728152192875  0.5082596781613944
  0.6066240433663665  0.4707913565982551  0.4660279692404430
  0.6331250286904222  0.4431843345373423  0.4653569066374033
  0.6157848145795768  0.2298673944672984  0.5058986724221199
  0.5717722567970327  0.2018564810611494  0.4651148509954339
  0.6310312081062577  0.2017173638511238  0.5476865550561740
  0.7851059168252519  0.3979059741990625  0.5060149138673253
  0.8131302909987710  0.3821337571891164  0.4649194372850758
  0.8672650601087284  0.4087970911192400  0.4654220933271560
  0.8951973304707224  0.4517708596737080  0.5078780470616167
  0.8672793051715075  0.4673382187311930  0.5495355477993442
  0.8132121212579051  0.4411317752021517  0.5480947329003243
  0.3673440759946018  0.7305842282669843  0.5098251514258649
  0.3936902742745545  0.7023807275923133  0.5097761155001734
  0.3665139522579324  0.6478058352211633  0.5097488834458446
  0.3119271626985309  0.6214278902703683  0.5096250329001677
  0.2845244454343074  0.6485938183359394  0.5097213594848498
  0.3127555626124732  0.7031564634533964  0.5097902072106919
  0.3949924850482844  0.6187682293104260  0.5104197988824595
  0.4416301188680762  0.6367268729889801  0.4743977204464969
  0.4687179397739527  0.6098021287932909  0.4757071214570843
  0.4504228553713645  0.5641032860245332  0.5138035366632963
  0.4034617240754130  0.5455489031267291  0.5490888638237337
  0.3763062543446480  0.5724672646413822  0.5472462048848001
  0.3964149019170549  0.7881069201766877  0.5104606300744408
  0.4426999165557888  0.8158047526228671  0.5473407442824794
  0.4695570444176980  0.8698907531697131  0.5491981349606263
  0.4509656056021498  0.8982172790815710  0.5138373604765221
  0.4053457300395991  0.8707288340787755  0.4755897203969965
  0.3784678124050131  0.8167157131115133  0.4743050843641541
  0.2269710257634330  0.6202309680004561  0.5102408441032438
  0.1993871299557455  0.6387148245672734  0.5475295275411582
  0.1452800587041452  0.6117205942760648  0.5491221634421279
  0.1167958190509211  0.5651749399772115  0.5130300660879001
  0.1441790061840464  0.5471397311874782  0.4744210115961707
  0.1982263318673745  0.5740029741310124  0.4734706771514112
  0.4805851519136723  0.5370660663454032  0.5142006939763704
  0.5353974816112554  0.4847941116902277  0.5103915742854639
  0.4840478813859690  0.5081598559562082  0.5680121880497353
  0.0595393809509304  0.5350852861183100  0.5133319186115344
  0.9524298316738609  0.4800674578190112  0.5098221002633849
  0.0272200012860253  0.5307302845437079  0.5676545989026565
  0.4778706905135479  0.9554232464743038  0.5142353111435938
  0.5066986235445228  0.9878920213913389  0.5680380262803482
  0.5344762737277406  0.5151598907762036  0.4566962403160488
  0.9836434516551975  0.4820309147293500  0.4554526096894165
 
  0.00000000E+00  0.00000000E+00  0.00000000E+00
  0.00000000E+00  0.00000000E+00  0.00000000E+00
  0.00000000E+00  0.00000000E+00  0.00000000E+00
  0.00000000E+00  0.00000000E+00  0.00000000E+00
  0.00000000E+00  0.00000000E+00  0.00000000E+00
  0.00000000E+00  0.00000000E+00  0.00000000E+00
  0.00000000E+00  0.00000000E+00  0.00000000E+00
  0.00000000E+00  0.00000000E+00  0.00000000E+00
  0.00000000E+00  0.00000000E+00  0.00000000E+00
  0.00000000E+00  0.00000000E+00  0.00000000E+00
  0.00000000E+00  0.00000000E+00  0.00000000E+00
  0.00000000E+00  0.00000000E+00  0.00000000E+00
  0.00000000E+00  0.00000000E+00  0.00000000E+00
  0.00000000E+00  0.00000000E+00  0.00000000E+00
  0.00000000E+00  0.00000000E+00  0.00000000E+00
  0.00000000E+00  0.00000000E+00  0.00000000E+00
  0.00000000E+00  0.00000000E+00  0.00000000E+00
  0.00000000E+00  0.00000000E+00  0.00000000E+00
  0.00000000E+00  0.00000000E+00  0.00000000E+00
  0.00000000E+00  0.00000000E+00  0.00000000E+00
  0.00000000E+00  0.00000000E+00  0.00000000E+00
  0.00000000E+00  0.00000000E+00  0.00000000E+00
  0.00000000E+00  0.00000000E+00  0.00000000E+00
  0.00000000E+00  0.00000000E+00  0.00000000E+00
  0.00000000E+00  0.00000000E+00  0.00000000E+00
  0.00000000E+00  0.00000000E+00  0.00000000E+00
  0.00000000E+00  0.00000000E+00  0.00000000E+00
  0.00000000E+00  0.00000000E+00  0.00000000E+00
  0.00000000E+00  0.00000000E+00  0.00000000E+00
  0.00000000E+00  0.00000000E+00  0.00000000E+00
  0.00000000E+00  0.00000000E+00  0.00000000E+00
  0.00000000E+00  0.00000000E+00  0.00000000E+00
  0.00000000E+00  0.00000000E+00  0.00000000E+00
  0.00000000E+00  0.00000000E+00  0.00000000E+00
  0.00000000E+00  0.00000000E+00  0.00000000E+00
  0.00000000E+00  0.00000000E+00  0.00000000E+00
  0.00000000E+00  0.00000000E+00  0.00000000E+00
  0.00000000E+00  0.00000000E+00  0.00000000E+00
  0.00000000E+00  0.00000000E+00  0.00000000E+00
  0.00000000E+00  0.00000000E+00  0.00000000E+00
  0.00000000E+00  0.00000000E+00  0.00000000E+00
  0.00000000E+00  0.00000000E+00  0.00000000E+00
  0.00000000E+00  0.00000000E+00  0.00000000E+00
  0.00000000E+00  0.00000000E+00  0.00000000E+00
  0.00000000E+00  0.00000000E+00  0.00000000E+00
  0.00000000E+00  0.00000000E+00  0.00000000E+00
  0.00000000E+00  0.00000000E+00  0.00000000E+00
  0.00000000E+00  0.00000000E+00  0.00000000E+00
  0.00000000E+00  0.00000000E+00  0.00000000E+00
  0.00000000E+00  0.00000000E+00  0.00000000E+00
  0.00000000E+00  0.00000000E+00  0.00000000E+00
  0.00000000E+00  0.00000000E+00  0.00000000E+00
  0.00000000E+00  0.00000000E+00  0.00000000E+00
  0.00000000E+00  0.00000000E+00  0.00000000E+00
  0.00000000E+00  0.00000000E+00  0.00000000E+00
  0.00000000E+00  0.00000000E+00  0.00000000E+00
  0.00000000E+00  0.00000000E+00  0.00000000E+00
  0.00000000E+00  0.00000000E+00  0.00000000E+00
  0.00000000E+00  0.00000000E+00  0.00000000E+00
  0.00000000E+00  0.00000000E+00  0.00000000E+00
  0.00000000E+00  0.00000000E+00  0.00000000E+00
  0.00000000E+00  0.00000000E+00  0.00000000E+00
  0.00000000E+00  0.00000000E+00  0.00000000E+00
  0.00000000E+00  0.00000000E+00  0.00000000E+00
  0.00000000E+00  0.00000000E+00  0.00000000E+00
  0.00000000E+00  0.00000000E+00  0.00000000E+00
  0.00000000E+00  0.00000000E+00  0.00000000E+00
  0.00000000E+00  0.00000000E+00  0.00000000E+00
  0.00000000E+00  0.00000000E+00  0.00000000E+00
  0.00000000E+00  0.00000000E+00  0.00000000E+00
  0.00000000E+00  0.00000000E+00  0.00000000E+00
  0.00000000E+00  0.00000000E+00  0.00000000E+00
  0.00000000E+00  0.00000000E+00  0.00000000E+00
  0.00000000E+00  0.00000000E+00  0.00000000E+00
  0.00000000E+00  0.00000000E+00  0.00000000E+00
  0.00000000E+00  0.00000000E+00  0.00000000E+00
  0.00000000E+00  0.00000000E+00  0.00000000E+00
  0.00000000E+00  0.00000000E+00  0.00000000E+00
  0.00000000E+00  0.00000000E+00  0.00000000E+00
  0.00000000E+00  0.00000000E+00  0.00000000E+00
  0.00000000E+00  0.00000000E+00  0.00000000E+00
  0.00000000E+00  0.00000000E+00  0.00000000E+00
  0.00000000E+00  0.00000000E+00  0.00000000E+00
  0.00000000E+00  0.00000000E+00  0.00000000E+00
  0.00000000E+00  0.00000000E+00  0.00000000E+00
  0.00000000E+00  0.00000000E+00  0.00000000E+00
  0.00000000E+00  0.00000000E+00  0.00000000E+00
  0.00000000E+00  0.00000000E+00  0.00000000E+00
  0.00000000E+00  0.00000000E+00  0.00000000E+00
  0.00000000E+00  0.00000000E+00  0.00000000E+00
  0.00000000E+00  0.00000000E+00  0.00000000E+00
  0.00000000E+00  0.00000000E+00  0.00000000E+00
  0.00000000E+00  0.00000000E+00  0.00000000E+00
  0.00000000E+00  0.00000000E+00  0.00000000E+00
  0.00000000E+00  0.00000000E+00  0.00000000E+00
  0.00000000E+00  0.00000000E+00  0.00000000E+00
  0.00000000E+00  0.00000000E+00  0.00000000E+00
  0.00000000E+00  0.00000000E+00  0.00000000E+00
  0.00000000E+00  0.00000000E+00  0.00000000E+00
  0.00000000E+00  0.00000000E+00  0.00000000E+00
  0.00000000E+00  0.00000000E+00  0.00000000E+00
  0.00000000E+00  0.00000000E+00  0.00000000E+00
  0.00000000E+00  0.00000000E+00  0.00000000E+00
  0.00000000E+00  0.00000000E+00  0.00000000E+00
  0.00000000E+00  0.00000000E+00  0.00000000E+00
  0.00000000E+00  0.00000000E+00  0.00000000E+00
  0.00000000E+00  0.00000000E+00  0.00000000E+00
  0.00000000E+00  0.00000000E+00  0.00000000E+00
