Primitive Cell                          
   1.00000000000000     
    29.9127069034862885    0.0069480758850105    0.0000000000000000
   -14.9502363606864819   25.9336763774065595    0.0000000000000000
     0.0000000000000000    0.0000000000000000   20.0000000000000000
   O    C    N    H 
    12    66     6    36
Direct
  0.5783285303013770  0.0861064777681975  0.6463553341482182
  0.4960622658398250  0.0421693071457980  0.6742414673358823
  0.5804431245787711  0.4906272027807432  0.6410370780500756
  0.4987419811136462  0.4534867375423204  0.6712730926901145
  0.9281884478713849  0.4330904488136653  0.6493002779183144
  0.9713358921473301  0.5150204314219522  0.6786069083674704
  0.5625149549855664  0.0422020730585118  0.3452943915775748
  0.5239223901552705  0.0858638485308489  0.3733652868310458
  0.5226154704484216  0.4334041252703855  0.3698642527625182
  0.5600490570859833  0.5151147538362082  0.3397801234634628
  0.9280400245001132  0.4906411713781154  0.3767887039199209
  0.9710348536174678  0.4514219218810709  0.3483201463247880
  0.0377915359668037  0.5212253360776344  0.5727672204924872
  0.0657461681436189  0.5311304368991472  0.5130196173136383
  0.0377044224606919  0.5128214698545932  0.4533925836346313
  0.1504494405954446  0.6023188883511637  0.5552475038377764
  0.1227056733926943  0.5597329017363251  0.5128743648452811
  0.1504898893760895  0.5449981806778865  0.4703280487090353
  0.2041410638175023  0.6293895436295855  0.5547788245959566
  0.2041750272761931  0.5717174479805962  0.4705563631576339
  0.2890790664963205  0.6430542942866140  0.5122051358198689
  0.3165720005814876  0.6971275603076634  0.5129773279586161
  0.3706440438481096  0.7246404481211712  0.5096750920101698
  0.3972232228675310  0.6971248775900918  0.5063213674030607
  0.3706878686326220  0.6430494845372294  0.5070487104863233
  0.3166131561078771  0.6164892760070160  0.5096433222227716
  0.3991370503744633  0.7816609642696974  0.5097190600595312
  0.3842435890398690  0.8095165673097924  0.5519040811872671
  0.4111994641252821  0.8631627809435400  0.5522584299757796
  0.4537695192426767  0.8909442527491578  0.5098358688735374
  0.4685646583059935  0.8631895643974374  0.4673369702757952
  0.4418829891683345  0.8095445848255736  0.4675760683849859
  0.2320120101331824  0.6144839892209362  0.5126432915608419
  0.3992372299414058  0.6145031811027124  0.5064755829073349
  0.3844560693146590  0.5717372946380053  0.5485289558764634
  0.4115401576029569  0.5451131398190441  0.5486597336254704
  0.4540194725855073  0.5599306528633079  0.5060325656019558
  0.4686963965576965  0.6024966134223320  0.4636737451687054
  0.4419650655539655  0.6294788813927283  0.4642504809617520
  0.7312422377689600  0.3637633612727385  0.5111516437782129
  0.7035892832751287  0.3096698029175542  0.5118526896832023
  0.6494923624837057  0.2821260819655791  0.5095007979434314
  0.6230367469141456  0.3097771233758593  0.5070058095978283
  0.6495518725025491  0.3638687890925709  0.5075294568313993
  0.7036602579423459  0.3903117525674915  0.5093240171490621
  0.6209196763285547  0.2250935822496700  0.5096142288905483
  0.6410314406345989  0.1970855350460923  0.4776252624276509
  0.6142791001534178  0.1434866686031171  0.4776751085870004
  0.5663269524728420  0.1160592791718500  0.5097789933229677
  0.5459048187668571  0.1436408340153079  0.5417809734420445
  0.5728306786996029  0.1972466703368241  0.5416786121197106
  0.7883238874936964  0.3921692667177581  0.5125561834259358
  0.8164163907242568  0.3724643820448748  0.4797923522737904
  0.8700495265732542  0.3991258491390113  0.4800849463542534
  0.8974540036537491  0.4465891782941611  0.5132603326903151
  0.8697838545071122  0.4665084077544392  0.5462474058778355
  0.8161296906081574  0.4396877445133356  0.5458697907933470
  0.6209475499671484  0.3923587753862421  0.5060264016935534
  0.6407115188597672  0.4398728470333992  0.4726854391005446
  0.6139695105632725  0.4668050371862336  0.4723328142953420
  0.5664213723867775  0.4469835562357645  0.5053384799195939
  0.5462789040358942  0.3994950020001724  0.5384650197336001
  0.5731679089704542  0.3727370685131888  0.5387666662388497
  0.5196302335794982  0.0294467905487608  0.5685217329276284
  0.4915510838803456  0.9758668788629024  0.5694615104508784
  0.5206296181898153  0.4878050546357713  0.5643374210421541
  0.4925406315247329  0.5133567375163040  0.5654374609984174
  0.9841789688600429  0.4929158599943975  0.5719611321279885
  0.4822277002678064  0.9478609765810191  0.5098690929954159
  0.5008833886764137  0.9758431731935246  0.4502591098114763
  0.5263787532946083  0.0294176195930760  0.4511640734915616
  0.5378301175366360  0.0590803485358364  0.5098327715069715
  0.4825227677448680  0.5314486799804570  0.5058127560082184
  0.5004480463455039  0.5214611513782046  0.4460148110958144
  0.5258475916188203  0.4932216949751904  0.4467724116298015
  0.5380387834956579  0.4756381354050276  0.5054555916257328
  0.9840895357708774  0.4871636173612259  0.4544435087648466
  0.9544647773263222  0.4751568010527123  0.5132504722956170
  0.5324730699458229  0.0550316806950377  0.6347919717921329
  0.5344510428484739  0.4759970927907062  0.6306122572539508
  0.9587382788514347  0.4791515611586519  0.6383743406161244
  0.5389508732184751  0.0549611341429781  0.3848684484641041
  0.5374348664787973  0.4793858331508289  0.3803672198939552
  0.9585571155378787  0.4750854620525189  0.3881076875518872
  0.0575621151452168  0.5336531736855576  0.6206960186361101
  0.0573696983536678  0.5202147875085430  0.4053701271785926
  0.1296916088453060  0.6148529401967764  0.5881201605545030
  0.1297876820131165  0.5117327578476605  0.4374684753849962
  0.2249366006843800  0.6622195695976529  0.5882565546568586
  0.2250094818418376  0.5598274631992552  0.4368578065164002
  0.3517764719944978  0.5597849228711809  0.5823041975296022
  0.3991161753862684  0.5118660352246494  0.5815227200349966
  0.4538839260767844  0.6623096195291964  0.4307998336428795
  0.5019596924408063  0.6151054518097467  0.4307487154841283
  0.4538352074123111  0.7887768277729919  0.4338673206592247
  0.5018472915745775  0.8838901245730639  0.4344790332984658
  0.3985855460735053  0.8838419849695782  0.5851342399317403
  0.3515151809786872  0.7887257243352721  0.5855685723543544
  0.2954647717143857  0.7181395221924731  0.5130167986891294
  0.2955851506879554  0.5744132118314553  0.5096450952771434
  0.4393256938455536  0.7181314473139366  0.5062545005894066
  0.8908851142033427  0.3828361937821612  0.4545146281358754
  0.7959272716582717  0.3361234660763870  0.4525799669760815
  0.8904399452368992  0.5035098286701114  0.5720377337782665
  0.7954583864289475  0.4555490006021827  0.5727343658662392
  0.6772084385058363  0.4556446446850373  0.4457828864186482
  0.6303641253384029  0.5038082914617377  0.4465394865364516
  0.5572845332233243  0.3363958403214227  0.5659838367194823
  0.5091734584809089  0.3832843923719196  0.5640347042253566
  0.5566542481520500  0.2178932375221976  0.5679005844465337
  0.5084977441069398  0.1229576525275107  0.5666664118087539
  0.6309003244630773  0.1226927430834053  0.4528071111192489
  0.6778076416870675  0.2176115037580217  0.4513249608494547
  0.7244924961515693  0.2886538881485592  0.5168269633959071
  0.7247059074233277  0.4323628069554886  0.5092866003437209
  0.5811325842258839  0.2888380556258809  0.5020632579280928
  0.4788173142811516  0.9562090951327775  0.6174152713671290
  0.4803473189722141  0.5207916701638879  0.6134956428352254
  0.4939105706784233  0.9561604351307764  0.4023213634748686
  0.4929572462802980  0.5337586980444087  0.3980806518654205
 
  0.00000000E+00  0.00000000E+00  0.00000000E+00
  0.00000000E+00  0.00000000E+00  0.00000000E+00
  0.00000000E+00  0.00000000E+00  0.00000000E+00
  0.00000000E+00  0.00000000E+00  0.00000000E+00
  0.00000000E+00  0.00000000E+00  0.00000000E+00
  0.00000000E+00  0.00000000E+00  0.00000000E+00
  0.00000000E+00  0.00000000E+00  0.00000000E+00
  0.00000000E+00  0.00000000E+00  0.00000000E+00
  0.00000000E+00  0.00000000E+00  0.00000000E+00
  0.00000000E+00  0.00000000E+00  0.00000000E+00
  0.00000000E+00  0.00000000E+00  0.00000000E+00
  0.00000000E+00  0.00000000E+00  0.00000000E+00
  0.00000000E+00  0.00000000E+00  0.00000000E+00
  0.00000000E+00  0.00000000E+00  0.00000000E+00
  0.00000000E+00  0.00000000E+00  0.00000000E+00
  0.00000000E+00  0.00000000E+00  0.00000000E+00
  0.00000000E+00  0.00000000E+00  0.00000000E+00
  0.00000000E+00  0.00000000E+00  0.00000000E+00
  0.00000000E+00  0.00000000E+00  0.00000000E+00
  0.00000000E+00  0.00000000E+00  0.00000000E+00
  0.00000000E+00  0.00000000E+00  0.00000000E+00
  0.00000000E+00  0.00000000E+00  0.00000000E+00
  0.00000000E+00  0.00000000E+00  0.00000000E+00
  0.00000000E+00  0.00000000E+00  0.00000000E+00
  0.00000000E+00  0.00000000E+00  0.00000000E+00
  0.00000000E+00  0.00000000E+00  0.00000000E+00
  0.00000000E+00  0.00000000E+00  0.00000000E+00
  0.00000000E+00  0.00000000E+00  0.00000000E+00
  0.00000000E+00  0.00000000E+00  0.00000000E+00
  0.00000000E+00  0.00000000E+00  0.00000000E+00
  0.00000000E+00  0.00000000E+00  0.00000000E+00
  0.00000000E+00  0.00000000E+00  0.00000000E+00
  0.00000000E+00  0.00000000E+00  0.00000000E+00
  0.00000000E+00  0.00000000E+00  0.00000000E+00
  0.00000000E+00  0.00000000E+00  0.00000000E+00
  0.00000000E+00  0.00000000E+00  0.00000000E+00
  0.00000000E+00  0.00000000E+00  0.00000000E+00
  0.00000000E+00  0.00000000E+00  0.00000000E+00
  0.00000000E+00  0.00000000E+00  0.00000000E+00
  0.00000000E+00  0.00000000E+00  0.00000000E+00
  0.00000000E+00  0.00000000E+00  0.00000000E+00
  0.00000000E+00  0.00000000E+00  0.00000000E+00
  0.00000000E+00  0.00000000E+00  0.00000000E+00
  0.00000000E+00  0.00000000E+00  0.00000000E+00
  0.00000000E+00  0.00000000E+00  0.00000000E+00
  0.00000000E+00  0.00000000E+00  0.00000000E+00
  0.00000000E+00  0.00000000E+00  0.00000000E+00
  0.00000000E+00  0.00000000E+00  0.00000000E+00
  0.00000000E+00  0.00000000E+00  0.00000000E+00
  0.00000000E+00  0.00000000E+00  0.00000000E+00
  0.00000000E+00  0.00000000E+00  0.00000000E+00
  0.00000000E+00  0.00000000E+00  0.00000000E+00
  0.00000000E+00  0.00000000E+00  0.00000000E+00
  0.00000000E+00  0.00000000E+00  0.00000000E+00
  0.00000000E+00  0.00000000E+00  0.00000000E+00
  0.00000000E+00  0.00000000E+00  0.00000000E+00
  0.00000000E+00  0.00000000E+00  0.00000000E+00
  0.00000000E+00  0.00000000E+00  0.00000000E+00
  0.00000000E+00  0.00000000E+00  0.00000000E+00
  0.00000000E+00  0.00000000E+00  0.00000000E+00
  0.00000000E+00  0.00000000E+00  0.00000000E+00
  0.00000000E+00  0.00000000E+00  0.00000000E+00
  0.00000000E+00  0.00000000E+00  0.00000000E+00
  0.00000000E+00  0.00000000E+00  0.00000000E+00
  0.00000000E+00  0.00000000E+00  0.00000000E+00
  0.00000000E+00  0.00000000E+00  0.00000000E+00
  0.00000000E+00  0.00000000E+00  0.00000000E+00
  0.00000000E+00  0.00000000E+00  0.00000000E+00
  0.00000000E+00  0.00000000E+00  0.00000000E+00
  0.00000000E+00  0.00000000E+00  0.00000000E+00
  0.00000000E+00  0.00000000E+00  0.00000000E+00
  0.00000000E+00  0.00000000E+00  0.00000000E+00
  0.00000000E+00  0.00000000E+00  0.00000000E+00
  0.00000000E+00  0.00000000E+00  0.00000000E+00
  0.00000000E+00  0.00000000E+00  0.00000000E+00
  0.00000000E+00  0.00000000E+00  0.00000000E+00
  0.00000000E+00  0.00000000E+00  0.00000000E+00
  0.00000000E+00  0.00000000E+00  0.00000000E+00
  0.00000000E+00  0.00000000E+00  0.00000000E+00
  0.00000000E+00  0.00000000E+00  0.00000000E+00
  0.00000000E+00  0.00000000E+00  0.00000000E+00
  0.00000000E+00  0.00000000E+00  0.00000000E+00
  0.00000000E+00  0.00000000E+00  0.00000000E+00
  0.00000000E+00  0.00000000E+00  0.00000000E+00
  0.00000000E+00  0.00000000E+00  0.00000000E+00
  0.00000000E+00  0.00000000E+00  0.00000000E+00
  0.00000000E+00  0.00000000E+00  0.00000000E+00
  0.00000000E+00  0.00000000E+00  0.00000000E+00
  0.00000000E+00  0.00000000E+00  0.00000000E+00
  0.00000000E+00  0.00000000E+00  0.00000000E+00
  0.00000000E+00  0.00000000E+00  0.00000000E+00
  0.00000000E+00  0.00000000E+00  0.00000000E+00
  0.00000000E+00  0.00000000E+00  0.00000000E+00
  0.00000000E+00  0.00000000E+00  0.00000000E+00
  0.00000000E+00  0.00000000E+00  0.00000000E+00
  0.00000000E+00  0.00000000E+00  0.00000000E+00
  0.00000000E+00  0.00000000E+00  0.00000000E+00
  0.00000000E+00  0.00000000E+00  0.00000000E+00
  0.00000000E+00  0.00000000E+00  0.00000000E+00
  0.00000000E+00  0.00000000E+00  0.00000000E+00
  0.00000000E+00  0.00000000E+00  0.00000000E+00
  0.00000000E+00  0.00000000E+00  0.00000000E+00
  0.00000000E+00  0.00000000E+00  0.00000000E+00
  0.00000000E+00  0.00000000E+00  0.00000000E+00
  0.00000000E+00  0.00000000E+00  0.00000000E+00
  0.00000000E+00  0.00000000E+00  0.00000000E+00
  0.00000000E+00  0.00000000E+00  0.00000000E+00
  0.00000000E+00  0.00000000E+00  0.00000000E+00
  0.00000000E+00  0.00000000E+00  0.00000000E+00
  0.00000000E+00  0.00000000E+00  0.00000000E+00
  0.00000000E+00  0.00000000E+00  0.00000000E+00
  0.00000000E+00  0.00000000E+00  0.00000000E+00
  0.00000000E+00  0.00000000E+00  0.00000000E+00
  0.00000000E+00  0.00000000E+00  0.00000000E+00
  0.00000000E+00  0.00000000E+00  0.00000000E+00
  0.00000000E+00  0.00000000E+00  0.00000000E+00
  0.00000000E+00  0.00000000E+00  0.00000000E+00
  0.00000000E+00  0.00000000E+00  0.00000000E+00
  0.00000000E+00  0.00000000E+00  0.00000000E+00
  0.00000000E+00  0.00000000E+00  0.00000000E+00
