Primitive Cell                          
   1.00000000000000     
    29.9045538606573054    0.0541050961966067    0.0000000000000000
   -14.9054504597285451   25.9018437082731658    0.0000000000000000
     0.0000000000000000    0.0000000000000000   20.0000000000000000
   N    C    O    H 
     6    66    12    36
Direct
  0.0561899480297470  0.5267975501385109  0.3837196166012333
  0.5361603926246374  0.0510319682672389  0.6377041487468702
  0.5335566712146615  0.4801458936737362  0.6371040953421030
  0.9625661488788921  0.4787833669643078  0.6408259202452555
  0.4900164796521835  0.9554752108828026  0.3819414149490044
  0.4875065097935973  0.5283063631099196  0.3801743687349628
  0.0387720272336622  0.5210283523403660  0.5700594503620664
  0.0649619425267076  0.5325838470312831  0.5087851738554576
  0.0336109978360852  0.5134983030389151  0.4515855673697118
  0.1495989782562290  0.6056897841166275  0.5461943848141146
  0.1218865532790616  0.5609346404735120  0.5075505187066369
  0.1494150739871714  0.5430711644725363  0.4696965531107793
  0.2032374402837007  0.6322115094445877  0.5461314834505941
  0.2030028902127299  0.5694356281620543  0.4701158330584363
  0.2880058400780783  0.6430220757375977  0.5078099006461869
  0.3155122209992527  0.6971250256892887  0.5077200386091789
  0.3695593905953274  0.7245251945063060  0.5075569660431398
  0.3961510726928097  0.6968865056073312  0.5073666715377385
  0.3696499562998028  0.6427838532210046  0.5072024590405348
  0.3155823319974331  0.6163690451094581  0.5074852058858781
  0.3980903381908831  0.7815949571531178  0.5073948043660579
  0.3815443448312550  0.8095431042075631  0.4678965715220755
  0.4087469063994078  0.8631863886724815  0.4669754127459242
  0.4532270968005463  0.8906786149015176  0.5061312348050322
  0.4695029295783613  0.8629932645742144  0.5463967366402542
  0.4425548183067320  0.8093249872960797  0.5466345366561569
  0.2309795504497387  0.6146658517869739  0.5080432647262825
  0.3981001084291833  0.6140302057708311  0.5064944540297063
  0.3807356023761415  0.5685522457878776  0.5439443228343350
  0.4073503278407316  0.5413790995331524  0.5431532391707421
  0.4520274662282020  0.5585209951156074  0.5042715801531870
  0.4696420171079012  0.6040275693073980  0.4669183375922472
  0.4431819689282008  0.6313250886896284  0.4682103874905863
  0.7309898314327441  0.3630713784599706  0.5126385016761859
  0.7030973457426200  0.3089780683239240  0.5122991339890461
  0.6490246867413703  0.2819592850257990  0.5128892682962771
  0.6228523076423187  0.3100011780005332  0.5136145272629093
  0.6497618364047071  0.3641120178255548  0.5134531794207362
  0.7038103151175008  0.3901208193290628  0.5130584548792783
  0.6202078825078488  0.2249249020699935  0.5128205114000721
  0.6369777489659398  0.1968598495378231  0.4740383810402875
  0.6100826697361725  0.1432057697797049  0.4740465465958437
  0.5657974368031518  0.1158138095407324  0.5135533990274936
  0.5487028191659178  0.1436198688508199  0.5521872331528357
  0.5754058911726929  0.1972629819233305  0.5515669757913741
  0.7879874691851256  0.3910262384338381  0.5137925602504154
  0.8160041848455819  0.3734168548776822  0.4764231257069369
  0.8696253467366617  0.3996979773489144  0.4774774060611051
  0.8970434205877567  0.4442584476455096  0.5165776593610119
  0.8692496783044561  0.4620696107781015  0.5539215084826097
  0.8156799812268218  0.4359502594432172  0.5523621968434540
  0.6216965955094906  0.3932206367860402  0.5130166004538452
  0.6395327918256726  0.4385735968857105  0.4751495285868188
  0.6131908109885345  0.4660295512559998  0.4750395092636950
  0.5683223457304507  0.4492622334595424  0.5133779914778671
  0.5501690008346714  0.4038106193690041  0.5510069390433898
  0.5763751147472576  0.3762783750042757  0.5506533412665036
  0.5377206137491584  0.0588199299439722  0.5127197143990045
  0.5219305561223280  0.0276903053077859  0.5703172392288565
  0.4941668439515965  0.9740908308536476  0.5679884453119470
  0.5401547250207699  0.4781803854490505  0.5121152919428340
  0.5207381818773911  0.4901904915383923  0.5692977444734666
  0.4916653645147449  0.5147589341150223  0.5664101155455015
  0.9539652485326542  0.4726587941017968  0.5157830555116831
  0.9852904025266582  0.4918466032803863  0.5729880728421861
  0.4822058424279874  0.9476783193129350  0.5068733275405961
  0.4982518293002016  0.9788083599525947  0.4492723451472855
  0.5240509537439308  0.0324199216278629  0.4515783804859126
  0.4805376619108230  0.5299296947836112  0.5051769774653110
  0.5000857473688356  0.5180527546135991  0.4480133070201475
  0.5291255305269615  0.4934302560491162  0.4508906320686918
  0.9801555407313245  0.4842669232724290  0.4545193073050271
  0.0879273545859789  0.5725461882714100  0.3725720041864449
  0.0405392602435271  0.4910975057838769  0.3425353389339421
  0.5011951884144992  0.0356976844765882  0.6798767916300861
  0.5819765590151320  0.0832426511573061  0.6473203309878244
  0.5793318995596195  0.4945262583862515  0.6489133102212179
  0.4974782512317049  0.4590967024320776  0.6775622172875444
  0.9308118616778955  0.4330761251322102  0.6521567115636913
  0.9780331155777162  0.5146273050092489  0.6817503891142351
  0.5035964242823709  0.9230046272043353  0.3731663973332857
  0.4711514152983369  0.9711129914894414  0.3389480023746572
  0.4417534029262384  0.5137822280383872  0.3680028096061037
  0.5237799820718294  0.5496831848400063  0.3400691974020944
  0.0605640271339425  0.5334756522695656  0.6165728928786862
  0.1288710108127447  0.6202458974754137  0.5757566585772906
  0.1287268850880778  0.5080105350789239  0.4398791925260284
  0.2240111150082669  0.6667151377530729  0.5768718817622371
  0.2235846694247670  0.5553016390509811  0.4395220442672638
  0.3463144087340737  0.5547238891201403  0.5748796055150649
  0.3929699030675806  0.5059895561453089  0.5722992517934316
  0.4571458283285779  0.6661654247826974  0.4380456220452800
  0.5046103229868706  0.6184917131272414  0.4368936792099305
  0.4557385136908678  0.7885256580157218  0.5784517814813555
  0.5041301783298380  0.8838004082554463  0.5769066701928480
  0.3951175657475332  0.8839207736389767  0.4357405180849128
  0.3474530098973858  0.7888802482447304  0.4364473883355515
  0.2944974629373007  0.7182925801136264  0.5076612622644134
  0.2945945857547940  0.5742927956268957  0.5072807239017720
  0.4382043802310562  0.7178856131183338  0.5071381145274216
  0.8905902810701463  0.3851793963867536  0.4483528273226725
  0.7954724056441549  0.3390809259783225  0.4453171167947048
  0.8897010724231009  0.4969491284617504  0.5841127462362579
  0.7948737045889658  0.4500657072843879  0.5825224146260766
  0.6741072061605777  0.4520757567668952  0.4446011507313870
  0.6279483115186295  0.5013487793264630  0.4456545673790302
  0.5620207820284051  0.3415094899547029  0.5810557446123852
  0.5150108933017634  0.3896312822050447  0.5805621896352520
  0.5619432993430351  0.2181564613016178  0.5827247659940653
  0.5140951612113227  0.1231288887516087  0.5828384447533352
  0.6240066581808250  0.1221579909934789  0.4439880463569494
  0.6711923245738447  0.2174270064792978  0.4427825401235452
  0.7238007174176673  0.2875419306263751  0.5146682329873613
  0.7251080544031794  0.4321936648530027  0.5132760748508645
  0.5808361423979136  0.2893554596500252  0.5114922678812235
  0.4815887095595954  0.9524889125468690  0.6146470572765779
  0.4789709055706055  0.5239178691534860  0.6129151235763999
  0.5336818099744747  0.0540381570524815  0.4048791382389183
  0.5418269736782548  0.4842696762665852  0.4043889025963665
  0.9583631086950959  0.4718540529814561  0.4080058158611095
 
  0.00000000E+00  0.00000000E+00  0.00000000E+00
  0.00000000E+00  0.00000000E+00  0.00000000E+00
  0.00000000E+00  0.00000000E+00  0.00000000E+00
  0.00000000E+00  0.00000000E+00  0.00000000E+00
  0.00000000E+00  0.00000000E+00  0.00000000E+00
  0.00000000E+00  0.00000000E+00  0.00000000E+00
  0.00000000E+00  0.00000000E+00  0.00000000E+00
  0.00000000E+00  0.00000000E+00  0.00000000E+00
  0.00000000E+00  0.00000000E+00  0.00000000E+00
  0.00000000E+00  0.00000000E+00  0.00000000E+00
  0.00000000E+00  0.00000000E+00  0.00000000E+00
  0.00000000E+00  0.00000000E+00  0.00000000E+00
  0.00000000E+00  0.00000000E+00  0.00000000E+00
  0.00000000E+00  0.00000000E+00  0.00000000E+00
  0.00000000E+00  0.00000000E+00  0.00000000E+00
  0.00000000E+00  0.00000000E+00  0.00000000E+00
  0.00000000E+00  0.00000000E+00  0.00000000E+00
  0.00000000E+00  0.00000000E+00  0.00000000E+00
  0.00000000E+00  0.00000000E+00  0.00000000E+00
  0.00000000E+00  0.00000000E+00  0.00000000E+00
  0.00000000E+00  0.00000000E+00  0.00000000E+00
  0.00000000E+00  0.00000000E+00  0.00000000E+00
  0.00000000E+00  0.00000000E+00  0.00000000E+00
  0.00000000E+00  0.00000000E+00  0.00000000E+00
  0.00000000E+00  0.00000000E+00  0.00000000E+00
  0.00000000E+00  0.00000000E+00  0.00000000E+00
  0.00000000E+00  0.00000000E+00  0.00000000E+00
  0.00000000E+00  0.00000000E+00  0.00000000E+00
  0.00000000E+00  0.00000000E+00  0.00000000E+00
  0.00000000E+00  0.00000000E+00  0.00000000E+00
  0.00000000E+00  0.00000000E+00  0.00000000E+00
  0.00000000E+00  0.00000000E+00  0.00000000E+00
  0.00000000E+00  0.00000000E+00  0.00000000E+00
  0.00000000E+00  0.00000000E+00  0.00000000E+00
  0.00000000E+00  0.00000000E+00  0.00000000E+00
  0.00000000E+00  0.00000000E+00  0.00000000E+00
  0.00000000E+00  0.00000000E+00  0.00000000E+00
  0.00000000E+00  0.00000000E+00  0.00000000E+00
  0.00000000E+00  0.00000000E+00  0.00000000E+00
  0.00000000E+00  0.00000000E+00  0.00000000E+00
  0.00000000E+00  0.00000000E+00  0.00000000E+00
  0.00000000E+00  0.00000000E+00  0.00000000E+00
  0.00000000E+00  0.00000000E+00  0.00000000E+00
  0.00000000E+00  0.00000000E+00  0.00000000E+00
  0.00000000E+00  0.00000000E+00  0.00000000E+00
  0.00000000E+00  0.00000000E+00  0.00000000E+00
  0.00000000E+00  0.00000000E+00  0.00000000E+00
  0.00000000E+00  0.00000000E+00  0.00000000E+00
  0.00000000E+00  0.00000000E+00  0.00000000E+00
  0.00000000E+00  0.00000000E+00  0.00000000E+00
  0.00000000E+00  0.00000000E+00  0.00000000E+00
  0.00000000E+00  0.00000000E+00  0.00000000E+00
  0.00000000E+00  0.00000000E+00  0.00000000E+00
  0.00000000E+00  0.00000000E+00  0.00000000E+00
  0.00000000E+00  0.00000000E+00  0.00000000E+00
  0.00000000E+00  0.00000000E+00  0.00000000E+00
  0.00000000E+00  0.00000000E+00  0.00000000E+00
  0.00000000E+00  0.00000000E+00  0.00000000E+00
  0.00000000E+00  0.00000000E+00  0.00000000E+00
  0.00000000E+00  0.00000000E+00  0.00000000E+00
  0.00000000E+00  0.00000000E+00  0.00000000E+00
  0.00000000E+00  0.00000000E+00  0.00000000E+00
  0.00000000E+00  0.00000000E+00  0.00000000E+00
  0.00000000E+00  0.00000000E+00  0.00000000E+00
  0.00000000E+00  0.00000000E+00  0.00000000E+00
  0.00000000E+00  0.00000000E+00  0.00000000E+00
  0.00000000E+00  0.00000000E+00  0.00000000E+00
  0.00000000E+00  0.00000000E+00  0.00000000E+00
  0.00000000E+00  0.00000000E+00  0.00000000E+00
  0.00000000E+00  0.00000000E+00  0.00000000E+00
  0.00000000E+00  0.00000000E+00  0.00000000E+00
  0.00000000E+00  0.00000000E+00  0.00000000E+00
  0.00000000E+00  0.00000000E+00  0.00000000E+00
  0.00000000E+00  0.00000000E+00  0.00000000E+00
  0.00000000E+00  0.00000000E+00  0.00000000E+00
  0.00000000E+00  0.00000000E+00  0.00000000E+00
  0.00000000E+00  0.00000000E+00  0.00000000E+00
  0.00000000E+00  0.00000000E+00  0.00000000E+00
  0.00000000E+00  0.00000000E+00  0.00000000E+00
  0.00000000E+00  0.00000000E+00  0.00000000E+00
  0.00000000E+00  0.00000000E+00  0.00000000E+00
  0.00000000E+00  0.00000000E+00  0.00000000E+00
  0.00000000E+00  0.00000000E+00  0.00000000E+00
  0.00000000E+00  0.00000000E+00  0.00000000E+00
  0.00000000E+00  0.00000000E+00  0.00000000E+00
  0.00000000E+00  0.00000000E+00  0.00000000E+00
  0.00000000E+00  0.00000000E+00  0.00000000E+00
  0.00000000E+00  0.00000000E+00  0.00000000E+00
  0.00000000E+00  0.00000000E+00  0.00000000E+00
  0.00000000E+00  0.00000000E+00  0.00000000E+00
  0.00000000E+00  0.00000000E+00  0.00000000E+00
  0.00000000E+00  0.00000000E+00  0.00000000E+00
  0.00000000E+00  0.00000000E+00  0.00000000E+00
  0.00000000E+00  0.00000000E+00  0.00000000E+00
  0.00000000E+00  0.00000000E+00  0.00000000E+00
  0.00000000E+00  0.00000000E+00  0.00000000E+00
  0.00000000E+00  0.00000000E+00  0.00000000E+00
  0.00000000E+00  0.00000000E+00  0.00000000E+00
  0.00000000E+00  0.00000000E+00  0.00000000E+00
  0.00000000E+00  0.00000000E+00  0.00000000E+00
  0.00000000E+00  0.00000000E+00  0.00000000E+00
  0.00000000E+00  0.00000000E+00  0.00000000E+00
  0.00000000E+00  0.00000000E+00  0.00000000E+00
  0.00000000E+00  0.00000000E+00  0.00000000E+00
  0.00000000E+00  0.00000000E+00  0.00000000E+00
  0.00000000E+00  0.00000000E+00  0.00000000E+00
  0.00000000E+00  0.00000000E+00  0.00000000E+00
  0.00000000E+00  0.00000000E+00  0.00000000E+00
  0.00000000E+00  0.00000000E+00  0.00000000E+00
  0.00000000E+00  0.00000000E+00  0.00000000E+00
  0.00000000E+00  0.00000000E+00  0.00000000E+00
  0.00000000E+00  0.00000000E+00  0.00000000E+00
  0.00000000E+00  0.00000000E+00  0.00000000E+00
  0.00000000E+00  0.00000000E+00  0.00000000E+00
  0.00000000E+00  0.00000000E+00  0.00000000E+00
  0.00000000E+00  0.00000000E+00  0.00000000E+00
  0.00000000E+00  0.00000000E+00  0.00000000E+00
  0.00000000E+00  0.00000000E+00  0.00000000E+00
  0.00000000E+00  0.00000000E+00  0.00000000E+00
  0.00000000E+00  0.00000000E+00  0.00000000E+00
