Primitive Cell                          
   1.00000000000000     
    24.9846185903529161   -0.1479286092989621    0.0000000000000000
    -0.1491649405900654   23.8916991084944286    0.0000000000000000
     0.0000000000000000    0.0000000000000000   20.0000000000000000
   C    O    H    N 
    60     2    46    12
Direct
  0.8567089808743376  0.9513533107483383  0.5050233693025632
  0.8916503038632939  0.9057246601868556  0.5092702949737742
  0.9467079526534903  0.9077103044649846  0.5240487314876106
  0.9814624610128035  0.0032426369846732  0.5070966667618464
  0.8583222067314509  0.0113117800108284  0.5073641207001671
  0.8976820694974350  0.0549175601916261  0.5096439411358276
  0.9780014228709888  0.1072036904635141  0.4958406877590562
  0.9333045329109453  0.1434490910390664  0.4971489431660885
  0.8866344073472874  0.1131314465774551  0.5064383904146226
  0.0319770848122332  0.1246791656924628  0.4940734590222107
  0.0798169057460640  0.0928461490593762  0.4961811998992474
  0.1342408465215925  0.0214658640366494  0.5007615936481642
  0.1664958657386748  0.0712568095821311  0.5146767917137964
  0.1326456669122038  0.1157906471995531  0.5122266412095371
  0.1518796266363438  0.9653533466246813  0.5056504792171594
  0.1161396790062525  0.9188599417172654  0.5111893799134037
  0.0403514304068082  0.8729716284856295  0.5184048585887524
  0.0819149122444500  0.8306144347382869  0.5154123209412376
  0.1294387167532207  0.8594458125349576  0.5105268170198372
  0.9837710691629411  0.8643665635927746  0.5183982483025744
  0.9634774003574194  0.8063586212634419  0.5075433037882959
  0.9292738151172699  0.7804615588962491  0.5542318372914963
  0.9137762005644205  0.7245045276149469  0.5466874783087761
  0.9322010704335852  0.6928254041445427  0.4925965556540461
  0.2102049496879488  0.9556385901450000  0.5068721898741586
  0.2340296554343197  0.9223172480412174  0.5562767761905505
  0.2891444089163571  0.9134610481297543  0.5562658263054985
  0.3220604043992381  0.9377007277025911  0.5072960175921040
  0.0412773150311310  0.1866769586825043  0.4933187848514891
  0.0658207116941938  0.3025113711934964  0.4931243688014746
  0.0399777871805043  0.2775860189112862  0.5479166121400780
  0.0279544245602850  0.2204206504786370  0.5481598705746933
  0.8024860846939603  0.0343434594035799  0.5024019027930038
  0.7667470136293844  0.0294796248934190  0.5561967434962654
  0.7145416204992117  0.0492105443536275  0.5509331728683833
  0.6967553202089363  0.0743983427369130  0.4918807602775104
  0.3818371305531514  0.9298459319382175  0.5081158976175573
  0.9205168734361990  0.6308074339484904  0.4885593745472150
  0.6396525280302612  0.0937926161373497  0.4849014836180032
  0.0779834643136894  0.3645560030386576  0.4921042319129825
  0.4891810898767162  0.0375380072643168  0.5479470848062462
  0.4597670702714822  0.9955419794568527  0.5125838212704252
  0.0187391657914588  0.5201358439082640  0.5437042848881504
  0.9799198159103000  0.5482487448039137  0.5042228668766526
  0.9651214762583322  0.7190549848937877  0.4449544817199609
  0.9803519318155480  0.7750050808401241  0.4520418570585463
  0.2984997737638082  0.9712450745422316  0.4581061632918519
  0.2435827542459208  0.9800271745688534  0.4577573196948563
  0.0668897279297838  0.2117410279547016  0.4382954401529702
  0.0790319866610574  0.2688635134874033  0.4383222679870329
  0.7845766270478904  0.0593223721988565  0.4431142687952843
  0.7324859759372160  0.0792175625198013  0.4380847032565356
  0.5583527269222444  0.0327777134579392  0.4726233725265203
  0.5293778126284536  0.9900268263983421  0.4370123619329362
  0.5505769195649535  0.9638959810366501  0.3760887975613585
  0.5166043316267448  0.9198339621972167  0.3416751045593429
  0.0185233452257023  0.4456007940202937  0.4712641519494056
  0.9801385343915001  0.4738367711919551  0.4305450723095916
  0.9598491460086791  0.4497470629115838  0.3676517101362222
  0.9209860461716630  0.4837139167957005  0.3270213232070844
  0.5952499072000705  0.9777822886591281  0.3528037164795776
  0.9744541391754495  0.4027352513520199  0.3477099567309594
  0.6872031726242298  0.0450704204941772  0.5933039447892767
  0.7802020615153609  0.0101622952370164  0.6026186266107061
  0.8156013437313092  0.9370132628632177  0.4962824811290716
  0.8732521916776150  0.8646566580327359  0.5012633638573689
  0.9286613991532775  0.9782509071372658  0.5742341802843782
  0.0209084463592717  0.9982603826284020  0.4831060976162149
  0.8467452676539864  0.1303183306546174  0.5087130000957316
  0.9364783440585072  0.1884957210695930  0.4915370734901217
  0.0087872087045113  0.2013011007203076  0.5917028238577018
  0.0296337803444757  0.3032125683091635  0.5911438499229575
  0.1423180341193913  0.1593830813004189  0.5225174022610304
  0.2086802247285959  0.0719332232624126  0.5278496706332163
  0.0761086497761383  0.7854983343291551  0.5168137145784186
  0.1691639478094800  0.8418976934273417  0.5057666690768912
  0.2090271991778891  0.9040305741509158  0.5954834968341913
  0.3069276277806665  0.8874644602086477  0.5951425993584323
  0.8875880183234912  0.7048960506590447  0.5839144267860377
  0.9158148743363270  0.8042605353297247  0.5975324008746696
  0.3921397464256344  0.8925872330872124  0.5381298912217147
  0.8807458754561708  0.6208943342259587  0.5101767332285547
  0.6217427619692231  0.1022658557346361  0.5338866418369932
  0.0797629033634735  0.3817056436668054  0.5429467947058839
  0.4725418818185716  0.0564353503195818  0.5932807619693179
  0.3971066803341472  0.9940984426491966  0.5784265768315393
  0.0345546764177271  0.5396545725373372  0.5893818519308311
  0.9746234268934160  0.6153309245647662  0.5678357535998799
  0.7193152300889949  0.0986030770125481  0.3915164770327735
  0.8119404369980785  0.0631893500709708  0.4007843823496842
  0.0777806218160464  0.1858146755707608  0.3956275795334889
  0.0993123138113816  0.2875430469687217  0.3952140206967272
  0.2255587603641445  0.0054314674814506  0.4186426244494470
  0.3237287642995810  0.9904636325521565  0.4196362235195892
  0.0061149944669054  0.7949282197228342  0.4147590007403323
  0.9794384146904562  0.6950318450838537  0.4022231893840313
  0.3971374944211803  0.9227058119071998  0.4573757414079154
  0.9198923781201316  0.6162409729599219  0.4364727135738278
  0.6386826567257629  0.1331053986478494  0.4558492116504098
  0.1175413294387226  0.3723819517582783  0.4688941244200535
  0.5066838109150069  0.8854704427028253  0.3762184249075347
  0.4781702717938430  0.9374884619144268  0.3259229234663934
  0.5383856732034644  0.9040261251147257  0.2982152039984953
  0.6203931388916857  0.0311964266734961  0.4095699218183952
  0.8856762449590008  0.4943610734760355  0.3569928459931475
  0.9394277649962746  0.5238098382319833  0.3119930129652886
  0.9091438365722553  0.4596343330281201  0.2827253719141893
  0.0213561586820248  0.3785101884820179  0.4114769342407172
  0.9596247452749367  0.9638167166951916  0.5456153317834236
  0.9552200060197009  0.0520837279611968  0.5041551762377310
  0.0826393166093879  0.0365682527805120  0.4880410697522777
  0.0623504694369856  0.9249473694750350  0.5164713825365297
  0.5368487380274374  0.0555755713739146  0.5288129267396471
  0.4089545478742167  0.9800064063117588  0.5330356895621975
  0.0375046897021249  0.4705797652128254  0.5278584489375007
  0.9627149458869866  0.6005219102492205  0.5227264118254524
  0.4807300839909772  0.9722480410060825  0.4583642357342441
  0.6070489932001806  0.0511009878476330  0.4519097148307338
  0.9614563053293566  0.5246010335797351  0.4484816379836261
  0.0366474939706407  0.3941134615021511  0.4554980678704723
 
  0.00000000E+00  0.00000000E+00  0.00000000E+00
  0.00000000E+00  0.00000000E+00  0.00000000E+00
  0.00000000E+00  0.00000000E+00  0.00000000E+00
  0.00000000E+00  0.00000000E+00  0.00000000E+00
  0.00000000E+00  0.00000000E+00  0.00000000E+00
  0.00000000E+00  0.00000000E+00  0.00000000E+00
  0.00000000E+00  0.00000000E+00  0.00000000E+00
  0.00000000E+00  0.00000000E+00  0.00000000E+00
  0.00000000E+00  0.00000000E+00  0.00000000E+00
  0.00000000E+00  0.00000000E+00  0.00000000E+00
  0.00000000E+00  0.00000000E+00  0.00000000E+00
  0.00000000E+00  0.00000000E+00  0.00000000E+00
  0.00000000E+00  0.00000000E+00  0.00000000E+00
  0.00000000E+00  0.00000000E+00  0.00000000E+00
  0.00000000E+00  0.00000000E+00  0.00000000E+00
  0.00000000E+00  0.00000000E+00  0.00000000E+00
  0.00000000E+00  0.00000000E+00  0.00000000E+00
  0.00000000E+00  0.00000000E+00  0.00000000E+00
  0.00000000E+00  0.00000000E+00  0.00000000E+00
  0.00000000E+00  0.00000000E+00  0.00000000E+00
  0.00000000E+00  0.00000000E+00  0.00000000E+00
  0.00000000E+00  0.00000000E+00  0.00000000E+00
  0.00000000E+00  0.00000000E+00  0.00000000E+00
  0.00000000E+00  0.00000000E+00  0.00000000E+00
  0.00000000E+00  0.00000000E+00  0.00000000E+00
  0.00000000E+00  0.00000000E+00  0.00000000E+00
  0.00000000E+00  0.00000000E+00  0.00000000E+00
  0.00000000E+00  0.00000000E+00  0.00000000E+00
  0.00000000E+00  0.00000000E+00  0.00000000E+00
  0.00000000E+00  0.00000000E+00  0.00000000E+00
  0.00000000E+00  0.00000000E+00  0.00000000E+00
  0.00000000E+00  0.00000000E+00  0.00000000E+00
  0.00000000E+00  0.00000000E+00  0.00000000E+00
  0.00000000E+00  0.00000000E+00  0.00000000E+00
  0.00000000E+00  0.00000000E+00  0.00000000E+00
  0.00000000E+00  0.00000000E+00  0.00000000E+00
  0.00000000E+00  0.00000000E+00  0.00000000E+00
  0.00000000E+00  0.00000000E+00  0.00000000E+00
  0.00000000E+00  0.00000000E+00  0.00000000E+00
  0.00000000E+00  0.00000000E+00  0.00000000E+00
  0.00000000E+00  0.00000000E+00  0.00000000E+00
  0.00000000E+00  0.00000000E+00  0.00000000E+00
  0.00000000E+00  0.00000000E+00  0.00000000E+00
  0.00000000E+00  0.00000000E+00  0.00000000E+00
  0.00000000E+00  0.00000000E+00  0.00000000E+00
  0.00000000E+00  0.00000000E+00  0.00000000E+00
  0.00000000E+00  0.00000000E+00  0.00000000E+00
  0.00000000E+00  0.00000000E+00  0.00000000E+00
  0.00000000E+00  0.00000000E+00  0.00000000E+00
  0.00000000E+00  0.00000000E+00  0.00000000E+00
  0.00000000E+00  0.00000000E+00  0.00000000E+00
  0.00000000E+00  0.00000000E+00  0.00000000E+00
  0.00000000E+00  0.00000000E+00  0.00000000E+00
  0.00000000E+00  0.00000000E+00  0.00000000E+00
  0.00000000E+00  0.00000000E+00  0.00000000E+00
  0.00000000E+00  0.00000000E+00  0.00000000E+00
  0.00000000E+00  0.00000000E+00  0.00000000E+00
  0.00000000E+00  0.00000000E+00  0.00000000E+00
  0.00000000E+00  0.00000000E+00  0.00000000E+00
  0.00000000E+00  0.00000000E+00  0.00000000E+00
  0.00000000E+00  0.00000000E+00  0.00000000E+00
  0.00000000E+00  0.00000000E+00  0.00000000E+00
  0.00000000E+00  0.00000000E+00  0.00000000E+00
  0.00000000E+00  0.00000000E+00  0.00000000E+00
  0.00000000E+00  0.00000000E+00  0.00000000E+00
  0.00000000E+00  0.00000000E+00  0.00000000E+00
  0.00000000E+00  0.00000000E+00  0.00000000E+00
  0.00000000E+00  0.00000000E+00  0.00000000E+00
  0.00000000E+00  0.00000000E+00  0.00000000E+00
  0.00000000E+00  0.00000000E+00  0.00000000E+00
  0.00000000E+00  0.00000000E+00  0.00000000E+00
  0.00000000E+00  0.00000000E+00  0.00000000E+00
  0.00000000E+00  0.00000000E+00  0.00000000E+00
  0.00000000E+00  0.00000000E+00  0.00000000E+00
  0.00000000E+00  0.00000000E+00  0.00000000E+00
  0.00000000E+00  0.00000000E+00  0.00000000E+00
  0.00000000E+00  0.00000000E+00  0.00000000E+00
  0.00000000E+00  0.00000000E+00  0.00000000E+00
  0.00000000E+00  0.00000000E+00  0.00000000E+00
  0.00000000E+00  0.00000000E+00  0.00000000E+00
  0.00000000E+00  0.00000000E+00  0.00000000E+00
  0.00000000E+00  0.00000000E+00  0.00000000E+00
  0.00000000E+00  0.00000000E+00  0.00000000E+00
  0.00000000E+00  0.00000000E+00  0.00000000E+00
  0.00000000E+00  0.00000000E+00  0.00000000E+00
  0.00000000E+00  0.00000000E+00  0.00000000E+00
  0.00000000E+00  0.00000000E+00  0.00000000E+00
  0.00000000E+00  0.00000000E+00  0.00000000E+00
  0.00000000E+00  0.00000000E+00  0.00000000E+00
  0.00000000E+00  0.00000000E+00  0.00000000E+00
  0.00000000E+00  0.00000000E+00  0.00000000E+00
  0.00000000E+00  0.00000000E+00  0.00000000E+00
  0.00000000E+00  0.00000000E+00  0.00000000E+00
  0.00000000E+00  0.00000000E+00  0.00000000E+00
  0.00000000E+00  0.00000000E+00  0.00000000E+00
  0.00000000E+00  0.00000000E+00  0.00000000E+00
  0.00000000E+00  0.00000000E+00  0.00000000E+00
  0.00000000E+00  0.00000000E+00  0.00000000E+00
  0.00000000E+00  0.00000000E+00  0.00000000E+00
  0.00000000E+00  0.00000000E+00  0.00000000E+00
  0.00000000E+00  0.00000000E+00  0.00000000E+00
  0.00000000E+00  0.00000000E+00  0.00000000E+00
  0.00000000E+00  0.00000000E+00  0.00000000E+00
  0.00000000E+00  0.00000000E+00  0.00000000E+00
  0.00000000E+00  0.00000000E+00  0.00000000E+00
  0.00000000E+00  0.00000000E+00  0.00000000E+00
  0.00000000E+00  0.00000000E+00  0.00000000E+00
  0.00000000E+00  0.00000000E+00  0.00000000E+00
  0.00000000E+00  0.00000000E+00  0.00000000E+00
  0.00000000E+00  0.00000000E+00  0.00000000E+00
  0.00000000E+00  0.00000000E+00  0.00000000E+00
  0.00000000E+00  0.00000000E+00  0.00000000E+00
  0.00000000E+00  0.00000000E+00  0.00000000E+00
  0.00000000E+00  0.00000000E+00  0.00000000E+00
  0.00000000E+00  0.00000000E+00  0.00000000E+00
  0.00000000E+00  0.00000000E+00  0.00000000E+00
  0.00000000E+00  0.00000000E+00  0.00000000E+00
  0.00000000E+00  0.00000000E+00  0.00000000E+00
  0.00000000E+00  0.00000000E+00  0.00000000E+00
  0.00000000E+00  0.00000000E+00  0.00000000E+00
