Primitive Cell                          
   1.00000000000000     
    32.0805266672603508    0.0825467470436294    0.0000000000000000
   -15.9685199748788840   27.7660219926574428    0.0000000000000000
     0.0000000000000000    0.0000000000000000   20.0000000000000000
   H    N    C 
    48    14    66
Direct
  0.3941795911879780  0.7321456611340338  0.4036330061326794
  0.3908812765897665  0.6960365265063402  0.5425914988653275
  0.4336700948659882  0.6496858542578678  0.5380557132481911
  0.2566299884622794  0.5977199859814206  0.5384418090665335
  0.2897058419246505  0.6012729992871186  0.3961295788219488
  0.3316892637505617  0.5541361799348010  0.3927018894706507
  0.4045097097575621  0.5577993360009330  0.3565589966619527
  0.4371858094380272  0.5149340831960458  0.3004480676470607
  0.4245784664875885  0.5739024814010278  0.5701474646603941
  0.4758768277174141  0.5168899559257127  0.5898340926538879
  0.4424231905669700  0.8205868538572147  0.4031071718570871
  0.2925982474840580  0.7394548844636901  0.5373332002540749
  0.3398710927799655  0.8280049851460660  0.5347296314991397
  0.2555379685823169  0.7041466971287704  0.4077266044359220
  0.1669451673916313  0.6593583706297963  0.4077965859863255
  0.1681048179598505  0.5520349830489479  0.5365856002106426
  0.6305617124791780  0.1992293320864249  0.4094079805353417
  0.4464336609134776  0.8908066293438992  0.3652100197943469
  0.5630985032508917  0.1292408298337691  0.3741695027474208
  0.4960121360471135  0.9660221828699065  0.3124344738659275
  0.5168817577989273  0.0212175204446652  0.3577254693836096
  0.1011576573670681  0.5883819705631339  0.3658650422182461
  0.0257788571059336  0.5606923171493534  0.3120384722936294
  0.9707286292030446  0.5233084724215402  0.3559058123342567
  0.5275169766350700  0.1331594702229566  0.5812045508703036
  0.4108588393053765  0.8941003016505391  0.5724363687356728
  0.4629032106875144  0.0025752439457349  0.5922182032083825
  0.4798336211370895  0.0579201162576766  0.6353418732515550
  0.8598321664336410  0.4280031391321231  0.5826976621176243
  0.0980705249989384  0.5511937681955601  0.5737797995137157
  0.9901011114288778  0.4889799168449827  0.5905914870112809
  0.9350577724361315  0.4539543003304232  0.6355253891014527
  0.6724333959214874  0.2878459549717007  0.4052148619795801
  0.7907223397373926  0.3619005928619998  0.5446181422673533
  0.7955518484748652  0.4708338785943269  0.4130208521871879
  0.8626614547045079  0.4680082044270719  0.3760925606531131
  0.4677630221607885  0.4899843020758539  0.3463660445209413
  0.5232255765490237  0.1992212382395309  0.5391296427539487
  0.5661618136106483  0.2879539350965672  0.5368982778129947
  0.5706155604707916  0.3239587620968791  0.3962427925345509
  0.5237095020862199  0.3661715567026746  0.3974104665546321
  0.7023294504795317  0.3196658200664686  0.5417502417454827
  0.7070790092601484  0.4274571629454513  0.4080125640816732
  0.6669693372123007  0.4228359788791707  0.5436351034965341
  0.6206062566482444  0.4656188957715486  0.5439727921037374
  0.5277242647124396  0.4410459867412229  0.3652737669161539
  0.5428578298526716  0.4529393070643479  0.5797329620341998
  0.5082088776868972  0.4939426677621626  0.6356209691832717
  0.3131420335311432  0.6786396727680142  0.4719530687988893
  0.4467175196819539  0.5059002473667533  0.3439574597774708
  0.4520677550782537  0.5358434841870547  0.5219749394808133
  0.5245758946161558  0.0639951067836719  0.4221727337501164
  0.5013029243575957  0.9843287307593229  0.3557061088634654
  0.9281040156420701  0.4911988557251590  0.4219339897137289
  0.0075791628953539  0.5405471781422122  0.3520050460148667
  0.4531937171319385  0.9595091913389169  0.5265247165123341
  0.4817575242925258  0.0395035947420865  0.5955263399755850
  0.0327103622270002  0.5243603280237537  0.5260749123612953
  0.9533380805215685  0.4674560503332472  0.5924033561215225
  0.6476721794677474  0.3450453714096255  0.4708148243879720
  0.4958703034927154  0.4749347504398500  0.4137578237185835
  0.4918742230905053  0.4959317062775739  0.5934472459434375
  0.3399935941711902  0.7294299568944638  0.4706787645387962
  0.2623701844015969  0.6539589870990312  0.4728375846659745
  0.3374251908991042  0.6518124432607664  0.4696619078341442
  0.3779914837971816  0.6648473346409958  0.5097909734898991
  0.4017947144831879  0.6385420117020715  0.5072390121443959
  0.3859540139481936  0.5982945858373583  0.4650439511448354
  0.3452126011878391  0.5855686712209547  0.4252111363488211
  0.3213375888479604  0.6118116050122993  0.4271716663236447
  0.3823007617176160  0.7532061213853254  0.4324943738720179
  0.2368761647452331  0.6112131468622692  0.5097841146189168
  0.4110700210177569  0.5703093094481204  0.4630422548750062
  0.4592311523035875  0.5172170765746884  0.4652019980752868
  0.4412571986744283  0.5242915541486894  0.4025075894405390
  0.4173663098488944  0.5511507984471109  0.4037915813703421
  0.4294381582791047  0.5611531609377209  0.5216622023124415
  0.4092306186770145  0.8031239962551027  0.4320627323497774
  0.3950411336067745  0.8314460279780604  0.4688391543798929
  0.3524016793118960  0.8072430834544235  0.5063927091800906
  0.3254162756974992  0.7572903959949286  0.5077073114322914
  0.2363289700281541  0.6708453567727517  0.4361670003513396
  0.1863968639574693  0.6452784634437876  0.4360354254415455
  0.1604899221812204  0.6019471112829962  0.4717196816161220
  0.1869743796514811  0.5857258610315910  0.5088399213258370
  0.4238161573859642  0.8843662855157461  0.4682030234482539
  0.4771148212119272  0.9853924083889041  0.4719711899589143
  0.4763812155823288  0.9605153933395272  0.4113476225017010
  0.4487698472905421  0.9099778579888209  0.4115223867676718
  0.5469159415350120  0.1117913852483952  0.4216118226181536
  0.1076240910033945  0.5742492415829119  0.4697438704824961
  0.0067767462290078  0.5206865547763613  0.4707416155093966
  0.0314652634557220  0.5443528405314879  0.4099162744065339
  0.0819435075662085  0.5710063203132947  0.4118468168887901
  0.8803687212678568  0.4683995265106873  0.4229468685873741
  0.4279506484630318  0.9117203867945989  0.5254720203681558
  0.5019773310335296  0.0382112347257930  0.4774131541903515
  0.5024365100523696  0.0631965412289617  0.5377831427823239
  0.5261527488409143  0.1137685582668055  0.5355365471261706
  0.5488893534440464  0.1392576404530459  0.4776969535448998
  0.0804503865039834  0.5495462857396447  0.5263019869834835
  0.9540635714937977  0.4929287927491757  0.4763513018731445
  0.9293811455980645  0.4685500518762709  0.5368400132630100
  0.8788885051659037  0.4452601073665079  0.5365692754416784
  0.8531692048749306  0.4446244794501197  0.4799596161471484
  0.5563217906438851  0.2184244843121306  0.5102489664352916
  0.5736860282229657  0.1921794131243786  0.4749253479259750
  0.6158162410928796  0.2183719435298244  0.4369238298255596
  0.6396964637914593  0.2683260005638957  0.4346566022387535
  0.7228248984287760  0.3528155412128271  0.5133995378650127
  0.7727035681024716  0.3769534817363436  0.5151410676410961
  0.8002892735678913  0.4196820742385938  0.4788260435988718
  0.7753899299238611  0.4373271995051695  0.4408204514540657
  0.6224855623684462  0.2941352635498049  0.4712327544856976
  0.6983964427980922  0.3703205806058136  0.4742298560147233
  0.6218368263416281  0.3702814254794760  0.4701544219610199
  0.5815577228799569  0.3551219609949712  0.4285415255186393
  0.5553907857814124  0.3791036610379024  0.4291927411688192
  0.5683773577149864  0.4190271107436061  0.4710423733588485
  0.6091794435148685  0.4342753948983997  0.5117828961277482
  0.6355203076367815  0.4104680094458928  0.5115828151634076
  0.5801963982467697  0.2684154596348023  0.5088410067869731
  0.7254869922947975  0.4131819151125455  0.4381453244032016
  0.5210443784703926  0.4521189909167802  0.4139442601351746
  0.4861486342013563  0.4911566728582528  0.4709130977754086
  0.5028550193897132  0.4830108274014293  0.5339946110060509
  0.5302319867627858  0.4597047769885734  0.5323823176306703
  0.5398815206215062  0.4436539977893261  0.4726640055573625
 
  0.00000000E+00  0.00000000E+00  0.00000000E+00
  0.00000000E+00  0.00000000E+00  0.00000000E+00
  0.00000000E+00  0.00000000E+00  0.00000000E+00
  0.00000000E+00  0.00000000E+00  0.00000000E+00
  0.00000000E+00  0.00000000E+00  0.00000000E+00
  0.00000000E+00  0.00000000E+00  0.00000000E+00
  0.00000000E+00  0.00000000E+00  0.00000000E+00
  0.00000000E+00  0.00000000E+00  0.00000000E+00
  0.00000000E+00  0.00000000E+00  0.00000000E+00
  0.00000000E+00  0.00000000E+00  0.00000000E+00
  0.00000000E+00  0.00000000E+00  0.00000000E+00
  0.00000000E+00  0.00000000E+00  0.00000000E+00
  0.00000000E+00  0.00000000E+00  0.00000000E+00
  0.00000000E+00  0.00000000E+00  0.00000000E+00
  0.00000000E+00  0.00000000E+00  0.00000000E+00
  0.00000000E+00  0.00000000E+00  0.00000000E+00
  0.00000000E+00  0.00000000E+00  0.00000000E+00
  0.00000000E+00  0.00000000E+00  0.00000000E+00
  0.00000000E+00  0.00000000E+00  0.00000000E+00
  0.00000000E+00  0.00000000E+00  0.00000000E+00
  0.00000000E+00  0.00000000E+00  0.00000000E+00
  0.00000000E+00  0.00000000E+00  0.00000000E+00
  0.00000000E+00  0.00000000E+00  0.00000000E+00
  0.00000000E+00  0.00000000E+00  0.00000000E+00
  0.00000000E+00  0.00000000E+00  0.00000000E+00
  0.00000000E+00  0.00000000E+00  0.00000000E+00
  0.00000000E+00  0.00000000E+00  0.00000000E+00
  0.00000000E+00  0.00000000E+00  0.00000000E+00
  0.00000000E+00  0.00000000E+00  0.00000000E+00
  0.00000000E+00  0.00000000E+00  0.00000000E+00
  0.00000000E+00  0.00000000E+00  0.00000000E+00
  0.00000000E+00  0.00000000E+00  0.00000000E+00
  0.00000000E+00  0.00000000E+00  0.00000000E+00
  0.00000000E+00  0.00000000E+00  0.00000000E+00
  0.00000000E+00  0.00000000E+00  0.00000000E+00
  0.00000000E+00  0.00000000E+00  0.00000000E+00
  0.00000000E+00  0.00000000E+00  0.00000000E+00
  0.00000000E+00  0.00000000E+00  0.00000000E+00
  0.00000000E+00  0.00000000E+00  0.00000000E+00
  0.00000000E+00  0.00000000E+00  0.00000000E+00
  0.00000000E+00  0.00000000E+00  0.00000000E+00
  0.00000000E+00  0.00000000E+00  0.00000000E+00
  0.00000000E+00  0.00000000E+00  0.00000000E+00
  0.00000000E+00  0.00000000E+00  0.00000000E+00
  0.00000000E+00  0.00000000E+00  0.00000000E+00
  0.00000000E+00  0.00000000E+00  0.00000000E+00
  0.00000000E+00  0.00000000E+00  0.00000000E+00
  0.00000000E+00  0.00000000E+00  0.00000000E+00
  0.00000000E+00  0.00000000E+00  0.00000000E+00
  0.00000000E+00  0.00000000E+00  0.00000000E+00
  0.00000000E+00  0.00000000E+00  0.00000000E+00
  0.00000000E+00  0.00000000E+00  0.00000000E+00
  0.00000000E+00  0.00000000E+00  0.00000000E+00
  0.00000000E+00  0.00000000E+00  0.00000000E+00
  0.00000000E+00  0.00000000E+00  0.00000000E+00
  0.00000000E+00  0.00000000E+00  0.00000000E+00
  0.00000000E+00  0.00000000E+00  0.00000000E+00
  0.00000000E+00  0.00000000E+00  0.00000000E+00
  0.00000000E+00  0.00000000E+00  0.00000000E+00
  0.00000000E+00  0.00000000E+00  0.00000000E+00
  0.00000000E+00  0.00000000E+00  0.00000000E+00
  0.00000000E+00  0.00000000E+00  0.00000000E+00
  0.00000000E+00  0.00000000E+00  0.00000000E+00
  0.00000000E+00  0.00000000E+00  0.00000000E+00
  0.00000000E+00  0.00000000E+00  0.00000000E+00
  0.00000000E+00  0.00000000E+00  0.00000000E+00
  0.00000000E+00  0.00000000E+00  0.00000000E+00
  0.00000000E+00  0.00000000E+00  0.00000000E+00
  0.00000000E+00  0.00000000E+00  0.00000000E+00
  0.00000000E+00  0.00000000E+00  0.00000000E+00
  0.00000000E+00  0.00000000E+00  0.00000000E+00
  0.00000000E+00  0.00000000E+00  0.00000000E+00
  0.00000000E+00  0.00000000E+00  0.00000000E+00
  0.00000000E+00  0.00000000E+00  0.00000000E+00
  0.00000000E+00  0.00000000E+00  0.00000000E+00
  0.00000000E+00  0.00000000E+00  0.00000000E+00
  0.00000000E+00  0.00000000E+00  0.00000000E+00
  0.00000000E+00  0.00000000E+00  0.00000000E+00
  0.00000000E+00  0.00000000E+00  0.00000000E+00
  0.00000000E+00  0.00000000E+00  0.00000000E+00
  0.00000000E+00  0.00000000E+00  0.00000000E+00
  0.00000000E+00  0.00000000E+00  0.00000000E+00
  0.00000000E+00  0.00000000E+00  0.00000000E+00
  0.00000000E+00  0.00000000E+00  0.00000000E+00
  0.00000000E+00  0.00000000E+00  0.00000000E+00
  0.00000000E+00  0.00000000E+00  0.00000000E+00
  0.00000000E+00  0.00000000E+00  0.00000000E+00
  0.00000000E+00  0.00000000E+00  0.00000000E+00
  0.00000000E+00  0.00000000E+00  0.00000000E+00
  0.00000000E+00  0.00000000E+00  0.00000000E+00
  0.00000000E+00  0.00000000E+00  0.00000000E+00
  0.00000000E+00  0.00000000E+00  0.00000000E+00
  0.00000000E+00  0.00000000E+00  0.00000000E+00
  0.00000000E+00  0.00000000E+00  0.00000000E+00
  0.00000000E+00  0.00000000E+00  0.00000000E+00
  0.00000000E+00  0.00000000E+00  0.00000000E+00
  0.00000000E+00  0.00000000E+00  0.00000000E+00
  0.00000000E+00  0.00000000E+00  0.00000000E+00
  0.00000000E+00  0.00000000E+00  0.00000000E+00
  0.00000000E+00  0.00000000E+00  0.00000000E+00
  0.00000000E+00  0.00000000E+00  0.00000000E+00
  0.00000000E+00  0.00000000E+00  0.00000000E+00
  0.00000000E+00  0.00000000E+00  0.00000000E+00
  0.00000000E+00  0.00000000E+00  0.00000000E+00
  0.00000000E+00  0.00000000E+00  0.00000000E+00
  0.00000000E+00  0.00000000E+00  0.00000000E+00
  0.00000000E+00  0.00000000E+00  0.00000000E+00
  0.00000000E+00  0.00000000E+00  0.00000000E+00
  0.00000000E+00  0.00000000E+00  0.00000000E+00
  0.00000000E+00  0.00000000E+00  0.00000000E+00
  0.00000000E+00  0.00000000E+00  0.00000000E+00
  0.00000000E+00  0.00000000E+00  0.00000000E+00
  0.00000000E+00  0.00000000E+00  0.00000000E+00
  0.00000000E+00  0.00000000E+00  0.00000000E+00
  0.00000000E+00  0.00000000E+00  0.00000000E+00
  0.00000000E+00  0.00000000E+00  0.00000000E+00
  0.00000000E+00  0.00000000E+00  0.00000000E+00
  0.00000000E+00  0.00000000E+00  0.00000000E+00
  0.00000000E+00  0.00000000E+00  0.00000000E+00
  0.00000000E+00  0.00000000E+00  0.00000000E+00
  0.00000000E+00  0.00000000E+00  0.00000000E+00
  0.00000000E+00  0.00000000E+00  0.00000000E+00
  0.00000000E+00  0.00000000E+00  0.00000000E+00
  0.00000000E+00  0.00000000E+00  0.00000000E+00
  0.00000000E+00  0.00000000E+00  0.00000000E+00
  0.00000000E+00  0.00000000E+00  0.00000000E+00
  0.00000000E+00  0.00000000E+00  0.00000000E+00
  0.00000000E+00  0.00000000E+00  0.00000000E+00
