Primitive Cell                          
   1.00000000000000     
    29.2046594588662316   -0.0017133493472169    0.0000000000000000
   -14.6037154626585863   25.3194341171655282    0.0000000000000000
     0.0000000000000000    0.0000000000000000   20.0000000000000000
   C    N    H 
    54    12    30
Direct
  0.4840637231460860  0.5144569178655942  0.4297904741279694
  0.4716460617745994  0.5276883854121337  0.4920065018328259
  0.2795381235333565  0.6419123370556505  0.5001258900206906
  0.3574398308986204  0.7197552697201601  0.5003262713091416
  0.3574951508307009  0.6419237948073615  0.5001012283191955
  0.3866457292958785  0.7782104087468795  0.4997830828858980
  0.3591999540473267  0.8062849046553353  0.4991600248511503
  0.3867101309475345  0.8612453251016987  0.4972561462076683
  0.4421418089665750  0.8892089551633617  0.4960312636799458
  0.4696109904579302  0.8612571603556063  0.4974027878509659
  0.4421625330736560  0.8063000212033131  0.4992701972810067
  0.2210122140527560  0.6126140759477323  0.4995843255124512
  0.1928229827222978  0.6399396130726203  0.4991435895003988
  0.1378079180765397  0.6123837339675404  0.4975134192661628
  0.1098763603268580  0.5570008044963473  0.4962904123006240
  0.1379310379725709  0.5296278849193286  0.4974744170196317
  0.1929479492290298  0.5571305157246442  0.4991093449839710
  0.3867426750859053  0.6126524704550675  0.4994765801895653
  0.3593302956130771  0.5571695023541707  0.4988937621364258
  0.3868642912570124  0.5296926908659287  0.4972310800486426
  0.4422956664180617  0.5570830744341393  0.4961515473050824
  0.4697414641806716  0.6124633506608816  0.4974718153955564
  0.4422691829970802  0.6400023046834420  0.4990844259174949
  0.7165191503064392  0.3600442144400233  0.5000229588393026
  0.6386183989594798  0.2821718847912251  0.5000955427385350
  0.6385756694798062  0.3600332750115953  0.4998406212914830
  0.6093378951107198  0.2236838324639265  0.4996136188498213
  0.6367438745853420  0.1955719329252261  0.4992039654685883
  0.6092301126438073  0.1406030615418530  0.4974485958907096
  0.5538047908247563  0.1126395669128968  0.4960664396874179
  0.5263483155120738  0.1406074300631488  0.4973036894538012
  0.5538085043576260  0.1955761358999695  0.4990796384340968
  0.7750515228189059  0.3893575941950189  0.4994320214067685
  0.8032882490294782  0.3620752727031018  0.4989085303584986
  0.8583133296189231  0.3896848930239898  0.4972508922436205
  0.8862202001457717  0.4450748310845469  0.4961379553775842
  0.8581015993748977  0.4723835355458661  0.4973457589268406
  0.8030819895816634  0.4448406302122336  0.4989580541643264
  0.6093499394249733  0.3893277774555344  0.4991444066065185
  0.6368185905506749  0.4448106766460072  0.4987009639062450
  0.6093701237318641  0.4723776869521643  0.4970794803167706
  0.5539401324795676  0.4450785972167353  0.4958344559366736
  0.5264354817611832  0.3896870644016985  0.4969175047120657
  0.5538278751779089  0.3620610110680857  0.4985801067772115
  0.5244687428637533  0.0539383733509879  0.4919093698114878
  0.5114736216466724  0.0282544976153645  0.4297331389499988
  0.4841388549427776  0.9735904730152782  0.4297197321803807
  0.4714966340907409  0.9479063840093289  0.4919006494842790
  0.9449905583327762  0.4745408669721414  0.4921007853275654
  0.9707256005572162  0.4872658807118526  0.4299430965577145
  0.0254379203280735  0.5146383605103537  0.4299988894875852
  0.0511266784871793  0.5276380595003900  0.4921875843677768
  0.5246409547700566  0.4745423246582021  0.4918442880187612
  0.5113980320906251  0.4870861284766974  0.4297157613151157
  0.4854200341579471  0.5147383221055577  0.5503113671567519
  0.3043185050163046  0.6950005940721411  0.5002464686059582
  0.3858309890454308  0.6950107294984136  0.5002829702132843
  0.3043702352152664  0.6136255306075284  0.5000133269286948
  0.6917682249903407  0.3069449960558259  0.5001470089568301
  0.6102617828328931  0.3069390133483054  0.4999347079332566
  0.6917015783313119  0.3883584648395555  0.4998906315068794
  0.4850343053948762  0.9745386245509025  0.5502765251333273
  0.5113652728693197  0.0273044382851140  0.5502638418140933
  0.0244481808802348  0.5145342331511031  0.5505464179493842
  0.9716546121907328  0.4881222694270235  0.5504753717076056
  0.5117772663093874  0.4882935645137394  0.5502338100365805
  0.4723772722121495  0.5256677810737216  0.3835723258562425
  0.1161123979607837  0.6338142760227612  0.4972626879318867
  0.2147818820096887  0.6829530107635762  0.4999430052803646
  0.1163316678163469  0.4865297872152112  0.4972214026381252
  0.2149891432375028  0.5361225917293098  0.4998893784762330
  0.3162762467821025  0.5361405581485883  0.4996037302822955
  0.3653740500311073  0.4865966977757239  0.4969047991681634
  0.4633321075731942  0.6830204723535189  0.4998919834747255
  0.5128709425898208  0.6338988093765607  0.4972897533577196
  0.4632128088118748  0.7843001164218322  0.5001903848951628
  0.5127386963756422  0.8828783655055261  0.4970874215366479
  0.3652071082891410  0.8828686450293901  0.4968383934769562
  0.3161479962350384  0.7842968834876700  0.5000350214134670
  0.8800151212925300  0.3682635526996592  0.4969445866727540
  0.7813520460429473  0.3190522911478268  0.4996640861565993
  0.8796540338947949  0.5154776134557935  0.4971122046353855
  0.7810048564447598  0.4658175941041023  0.4997261555577097
  0.6798709511787919  0.4657679793435676  0.4995318893768896
  0.6309462571779889  0.5154720411889500  0.4968528709974862
  0.5327061046045003  0.3190382898997584  0.4993525396580125
  0.4833055107938833  0.3682811396076602  0.4966086290126057
  0.5327263621116600  0.2175429037846186  0.4999367362168314
  0.4832159575001498  0.1189833646607141  0.4969720929454695
  0.6307352060932629  0.1189859673477542  0.4972168356291107
  0.6797889556771537  0.2175661006886358  0.5001378420583791
  0.4726298059755649  0.9507916222697332  0.3834399122102923
  0.5227626750285950  0.0510804489165082  0.3834888967534695
  0.0483038770756465  0.5260065291356284  0.3837573815573307
  0.9479295027880923  0.4757743006300004  0.3836485963592722
  0.5225400506713882  0.4754647307161548  0.3834043194017127
 
  0.00000000E+00  0.00000000E+00  0.00000000E+00
  0.00000000E+00  0.00000000E+00  0.00000000E+00
  0.00000000E+00  0.00000000E+00  0.00000000E+00
  0.00000000E+00  0.00000000E+00  0.00000000E+00
  0.00000000E+00  0.00000000E+00  0.00000000E+00
  0.00000000E+00  0.00000000E+00  0.00000000E+00
  0.00000000E+00  0.00000000E+00  0.00000000E+00
  0.00000000E+00  0.00000000E+00  0.00000000E+00
  0.00000000E+00  0.00000000E+00  0.00000000E+00
  0.00000000E+00  0.00000000E+00  0.00000000E+00
  0.00000000E+00  0.00000000E+00  0.00000000E+00
  0.00000000E+00  0.00000000E+00  0.00000000E+00
  0.00000000E+00  0.00000000E+00  0.00000000E+00
  0.00000000E+00  0.00000000E+00  0.00000000E+00
  0.00000000E+00  0.00000000E+00  0.00000000E+00
  0.00000000E+00  0.00000000E+00  0.00000000E+00
  0.00000000E+00  0.00000000E+00  0.00000000E+00
  0.00000000E+00  0.00000000E+00  0.00000000E+00
  0.00000000E+00  0.00000000E+00  0.00000000E+00
  0.00000000E+00  0.00000000E+00  0.00000000E+00
  0.00000000E+00  0.00000000E+00  0.00000000E+00
  0.00000000E+00  0.00000000E+00  0.00000000E+00
  0.00000000E+00  0.00000000E+00  0.00000000E+00
  0.00000000E+00  0.00000000E+00  0.00000000E+00
  0.00000000E+00  0.00000000E+00  0.00000000E+00
  0.00000000E+00  0.00000000E+00  0.00000000E+00
  0.00000000E+00  0.00000000E+00  0.00000000E+00
  0.00000000E+00  0.00000000E+00  0.00000000E+00
  0.00000000E+00  0.00000000E+00  0.00000000E+00
  0.00000000E+00  0.00000000E+00  0.00000000E+00
  0.00000000E+00  0.00000000E+00  0.00000000E+00
  0.00000000E+00  0.00000000E+00  0.00000000E+00
  0.00000000E+00  0.00000000E+00  0.00000000E+00
  0.00000000E+00  0.00000000E+00  0.00000000E+00
  0.00000000E+00  0.00000000E+00  0.00000000E+00
  0.00000000E+00  0.00000000E+00  0.00000000E+00
  0.00000000E+00  0.00000000E+00  0.00000000E+00
  0.00000000E+00  0.00000000E+00  0.00000000E+00
  0.00000000E+00  0.00000000E+00  0.00000000E+00
  0.00000000E+00  0.00000000E+00  0.00000000E+00
  0.00000000E+00  0.00000000E+00  0.00000000E+00
  0.00000000E+00  0.00000000E+00  0.00000000E+00
  0.00000000E+00  0.00000000E+00  0.00000000E+00
  0.00000000E+00  0.00000000E+00  0.00000000E+00
  0.00000000E+00  0.00000000E+00  0.00000000E+00
  0.00000000E+00  0.00000000E+00  0.00000000E+00
  0.00000000E+00  0.00000000E+00  0.00000000E+00
  0.00000000E+00  0.00000000E+00  0.00000000E+00
  0.00000000E+00  0.00000000E+00  0.00000000E+00
  0.00000000E+00  0.00000000E+00  0.00000000E+00
  0.00000000E+00  0.00000000E+00  0.00000000E+00
  0.00000000E+00  0.00000000E+00  0.00000000E+00
  0.00000000E+00  0.00000000E+00  0.00000000E+00
  0.00000000E+00  0.00000000E+00  0.00000000E+00
  0.00000000E+00  0.00000000E+00  0.00000000E+00
  0.00000000E+00  0.00000000E+00  0.00000000E+00
  0.00000000E+00  0.00000000E+00  0.00000000E+00
  0.00000000E+00  0.00000000E+00  0.00000000E+00
  0.00000000E+00  0.00000000E+00  0.00000000E+00
  0.00000000E+00  0.00000000E+00  0.00000000E+00
  0.00000000E+00  0.00000000E+00  0.00000000E+00
  0.00000000E+00  0.00000000E+00  0.00000000E+00
  0.00000000E+00  0.00000000E+00  0.00000000E+00
  0.00000000E+00  0.00000000E+00  0.00000000E+00
  0.00000000E+00  0.00000000E+00  0.00000000E+00
  0.00000000E+00  0.00000000E+00  0.00000000E+00
  0.00000000E+00  0.00000000E+00  0.00000000E+00
  0.00000000E+00  0.00000000E+00  0.00000000E+00
  0.00000000E+00  0.00000000E+00  0.00000000E+00
  0.00000000E+00  0.00000000E+00  0.00000000E+00
  0.00000000E+00  0.00000000E+00  0.00000000E+00
  0.00000000E+00  0.00000000E+00  0.00000000E+00
  0.00000000E+00  0.00000000E+00  0.00000000E+00
  0.00000000E+00  0.00000000E+00  0.00000000E+00
  0.00000000E+00  0.00000000E+00  0.00000000E+00
  0.00000000E+00  0.00000000E+00  0.00000000E+00
  0.00000000E+00  0.00000000E+00  0.00000000E+00
  0.00000000E+00  0.00000000E+00  0.00000000E+00
  0.00000000E+00  0.00000000E+00  0.00000000E+00
  0.00000000E+00  0.00000000E+00  0.00000000E+00
  0.00000000E+00  0.00000000E+00  0.00000000E+00
  0.00000000E+00  0.00000000E+00  0.00000000E+00
  0.00000000E+00  0.00000000E+00  0.00000000E+00
  0.00000000E+00  0.00000000E+00  0.00000000E+00
  0.00000000E+00  0.00000000E+00  0.00000000E+00
  0.00000000E+00  0.00000000E+00  0.00000000E+00
  0.00000000E+00  0.00000000E+00  0.00000000E+00
  0.00000000E+00  0.00000000E+00  0.00000000E+00
  0.00000000E+00  0.00000000E+00  0.00000000E+00
  0.00000000E+00  0.00000000E+00  0.00000000E+00
  0.00000000E+00  0.00000000E+00  0.00000000E+00
  0.00000000E+00  0.00000000E+00  0.00000000E+00
  0.00000000E+00  0.00000000E+00  0.00000000E+00
  0.00000000E+00  0.00000000E+00  0.00000000E+00
  0.00000000E+00  0.00000000E+00  0.00000000E+00
  0.00000000E+00  0.00000000E+00  0.00000000E+00
