Primitive Cell                          
   1.00000000000000     
    24.5185146361920090   -0.0862593683787425    0.0000000000000000
   -12.3336368132401031   21.3271301611229731    0.0000000000000000
     0.0000000000000000    0.0000000000000000   20.0000000000000000
   N    C    H 
    11    48    33
Direct
  0.6969867020629650  0.3756072222999549  0.5179250901349945
  0.3666896234895418  0.7103757426567654  0.5246109351849526
  0.5362174279857896  0.5110069799902064  0.5765064242784845
  0.4755439420680361  0.5383308849182527  0.6398762078110138
  0.9949152629065878  0.5695723791822616  0.5481025229603418
  0.0824182790436794  0.6636314153951801  0.5757380595097175
  0.5575563429446717  0.0799792914576756  0.5865190743435207
  0.5302857797498035  0.9922774796601530  0.6504079519345680
  0.5334166067956687  0.5800254404600693  0.4678344343503937
  0.0678456596878192  0.5194121605660058  0.5051727731106581
  0.4871887220583275  0.0069379303935122  0.4786971466558043
  0.6642825897755174  0.4094551256442429  0.5169761230139116
  0.7635030809795325  0.4081417397714091  0.5199047941895216
  0.6618890907877741  0.3091197418457341  0.5204498606478722
  0.6795562729409923  0.2755969708096444  0.5636594795284324
  0.6441297581077876  0.2104324074036086  0.5664039288246627
  0.5902601504990201  0.1764339960910490  0.5261179623167251
  0.5728679578668121  0.2104427518960748  0.4832163367112869
  0.6079567380703708  0.2756643000723358  0.4802973064344656
  0.6839338639325305  0.4615640029109258  0.4746473116300436
  0.6524434637984200  0.4953240427451675  0.4750393056660585
  0.6004500636006043  0.4782346473514920  0.5174260558581096
  0.5809446140563210  0.4257028398352318  0.5592565309661808
  0.6120475416093853  0.3916624498021548  0.5590378764309847
  0.7972430652395417  0.4661722539437179  0.5533293331614146
  0.8627255953631092  0.4984736332041706  0.5544062111474375
  0.8974957858952806  0.4744148008194600  0.5229053729805742
  0.8632922943437862  0.4160959276860652  0.4900749843506986
  0.7977212940769647  0.3835580669784093  0.4883062095550912
  0.3990918393307581  0.6766030040156537  0.5232266548204052
  0.2995424887087665  0.6769692323066465  0.5271235588047531
  0.3989055933388244  0.7766561493980504  0.5272611662391711
  0.4561345587828072  0.8111126148728971  0.5621724521595368
  0.4863877072124083  0.8763737687893567  0.5650093734459958
  0.4608543847496165  0.9097719625134673  0.5335011180102569
  0.4039111152582819  0.8748007609042148  0.4979983142638247
  0.3734149748570701  0.8097192780019569  0.4949454387476990
  0.3737203333543988  0.6181927580961784  0.5556959639691854
  0.4061518717971637  0.5853422356314724  0.5557555384369550
  0.4650044831316578  0.6093427979981172  0.5237475035775461
  0.4890205685605835  0.6669326192056175  0.4895807363930018
  0.4569660089887790  0.7000162633277895  0.4891669053160470
  0.2680099024955425  0.6897832591923816  0.5776314159531140
  0.2022870406484358  0.6581923646019305  0.5793661922376359
  0.1660076104742672  0.6127760905374515  0.5307339623522154
  0.1984769957869403  0.5992973921152398  0.4812444426237334
  0.2640040734003861  0.6308031575970503  0.4792174664356850
  0.5008086331315056  0.5758828149847233  0.5233056637479621
  0.5669805056138983  0.5139659921688065  0.5196016553585636
  0.5042779514881346  0.5417222757417264  0.5796095675357051
  0.0962760449086986  0.5779741878229672  0.5301042581434672
  0.9670566376266692  0.5102844124192600  0.5247075031056099
  0.0578985889899215  0.6034606927946768  0.5511460068963387
  0.4925632123453880  0.9790340135092350  0.5338920785071011
  0.5538340962347874  0.1072225263026354  0.5296465832134416
  0.5267871240944046  0.0172446202810548  0.5900033953749357
  0.5659951749723717  0.5499468801202028  0.4655677805323322
  0.0050196032570184  0.4859155238740271  0.5026872334748944
  0.5167176218046521  0.0695829136069221  0.4762846459329637
  0.6693457958058673  0.5362074581706509  0.4424871475104908
  0.7245390497181816  0.4757558627981453  0.4420128295948871
  0.5964898271144463  0.3511762447764895  0.5918949855910896
  0.5411443193540748  0.4125317332735392  0.5927709523191140
  0.7211220797485680  0.3012152907783232  0.5952895295146092
  0.6574222315326779  0.1845786243734295  0.6005882122293471
  0.7714933972075073  0.4855947082024272  0.5786493980276504
  0.8884946099898485  0.5432575030918159  0.5805267204844071
  0.8879707337575908  0.3959594909763808  0.4639176269335223
  0.7724148219997531  0.3389136380679645  0.4617997760489345
  0.5936233944961060  0.3013545777642435  0.4471125030969816
  0.5308032783346732  0.1857920382376435  0.4520873502145690
  0.3845466656614960  0.5395481822422070  0.5801749822499644
  0.3282218170313982  0.5985128769198411  0.5808661864129476
  0.4766461216685869  0.7445574627350098  0.4624748899588411
  0.5334536960351670  0.6850400872329274  0.4625393678232825
  0.4770890064106510  0.7865338449817258  0.5868739754446466
  0.5314922470990524  0.9018171407586806  0.5911077597221848
  0.2954825038004216  0.7244413829778793  0.6159232303099316
  0.1790996040049677  0.6671495260144980  0.6209228140697647
  0.1708553227444440  0.5636489465705026  0.4439265210224335
  0.2884560528801927  0.6204633167462035  0.4400973338493728
  0.3293502708357892  0.7836287398070425  0.4671875501469032
  0.3844286816684956  0.9000324278513432  0.4717846772656529
  0.4650946627287809  0.5722658533699629  0.6506471392557245
  0.4911325019797488  0.5230254792574414  0.6784941225783072
  0.1268465988957601  0.6962058255326085  0.5617512541800380
  0.0507051351588004  0.6786417889412633  0.5768646102049715
  0.4961666484961427  0.9477360770492496  0.6613075211873110
  0.5456247076991190  0.0233148513856278  0.6889442769209637
  0.5906849976962150  0.5535156242292203  0.4188842338860894
  0.9846080252434604  0.4382755099133604  0.4830585042678734
  0.5120698781212667  0.0902036964496489  0.4298549437541794
 
  0.00000000E+00  0.00000000E+00  0.00000000E+00
  0.00000000E+00  0.00000000E+00  0.00000000E+00
  0.00000000E+00  0.00000000E+00  0.00000000E+00
  0.00000000E+00  0.00000000E+00  0.00000000E+00
  0.00000000E+00  0.00000000E+00  0.00000000E+00
  0.00000000E+00  0.00000000E+00  0.00000000E+00
  0.00000000E+00  0.00000000E+00  0.00000000E+00
  0.00000000E+00  0.00000000E+00  0.00000000E+00
  0.00000000E+00  0.00000000E+00  0.00000000E+00
  0.00000000E+00  0.00000000E+00  0.00000000E+00
  0.00000000E+00  0.00000000E+00  0.00000000E+00
  0.00000000E+00  0.00000000E+00  0.00000000E+00
  0.00000000E+00  0.00000000E+00  0.00000000E+00
  0.00000000E+00  0.00000000E+00  0.00000000E+00
  0.00000000E+00  0.00000000E+00  0.00000000E+00
  0.00000000E+00  0.00000000E+00  0.00000000E+00
  0.00000000E+00  0.00000000E+00  0.00000000E+00
  0.00000000E+00  0.00000000E+00  0.00000000E+00
  0.00000000E+00  0.00000000E+00  0.00000000E+00
  0.00000000E+00  0.00000000E+00  0.00000000E+00
  0.00000000E+00  0.00000000E+00  0.00000000E+00
  0.00000000E+00  0.00000000E+00  0.00000000E+00
  0.00000000E+00  0.00000000E+00  0.00000000E+00
  0.00000000E+00  0.00000000E+00  0.00000000E+00
  0.00000000E+00  0.00000000E+00  0.00000000E+00
  0.00000000E+00  0.00000000E+00  0.00000000E+00
  0.00000000E+00  0.00000000E+00  0.00000000E+00
  0.00000000E+00  0.00000000E+00  0.00000000E+00
  0.00000000E+00  0.00000000E+00  0.00000000E+00
  0.00000000E+00  0.00000000E+00  0.00000000E+00
  0.00000000E+00  0.00000000E+00  0.00000000E+00
  0.00000000E+00  0.00000000E+00  0.00000000E+00
  0.00000000E+00  0.00000000E+00  0.00000000E+00
  0.00000000E+00  0.00000000E+00  0.00000000E+00
  0.00000000E+00  0.00000000E+00  0.00000000E+00
  0.00000000E+00  0.00000000E+00  0.00000000E+00
  0.00000000E+00  0.00000000E+00  0.00000000E+00
  0.00000000E+00  0.00000000E+00  0.00000000E+00
  0.00000000E+00  0.00000000E+00  0.00000000E+00
  0.00000000E+00  0.00000000E+00  0.00000000E+00
  0.00000000E+00  0.00000000E+00  0.00000000E+00
  0.00000000E+00  0.00000000E+00  0.00000000E+00
  0.00000000E+00  0.00000000E+00  0.00000000E+00
  0.00000000E+00  0.00000000E+00  0.00000000E+00
  0.00000000E+00  0.00000000E+00  0.00000000E+00
  0.00000000E+00  0.00000000E+00  0.00000000E+00
  0.00000000E+00  0.00000000E+00  0.00000000E+00
  0.00000000E+00  0.00000000E+00  0.00000000E+00
  0.00000000E+00  0.00000000E+00  0.00000000E+00
  0.00000000E+00  0.00000000E+00  0.00000000E+00
  0.00000000E+00  0.00000000E+00  0.00000000E+00
  0.00000000E+00  0.00000000E+00  0.00000000E+00
  0.00000000E+00  0.00000000E+00  0.00000000E+00
  0.00000000E+00  0.00000000E+00  0.00000000E+00
  0.00000000E+00  0.00000000E+00  0.00000000E+00
  0.00000000E+00  0.00000000E+00  0.00000000E+00
  0.00000000E+00  0.00000000E+00  0.00000000E+00
  0.00000000E+00  0.00000000E+00  0.00000000E+00
  0.00000000E+00  0.00000000E+00  0.00000000E+00
  0.00000000E+00  0.00000000E+00  0.00000000E+00
  0.00000000E+00  0.00000000E+00  0.00000000E+00
  0.00000000E+00  0.00000000E+00  0.00000000E+00
  0.00000000E+00  0.00000000E+00  0.00000000E+00
  0.00000000E+00  0.00000000E+00  0.00000000E+00
  0.00000000E+00  0.00000000E+00  0.00000000E+00
  0.00000000E+00  0.00000000E+00  0.00000000E+00
  0.00000000E+00  0.00000000E+00  0.00000000E+00
  0.00000000E+00  0.00000000E+00  0.00000000E+00
  0.00000000E+00  0.00000000E+00  0.00000000E+00
  0.00000000E+00  0.00000000E+00  0.00000000E+00
  0.00000000E+00  0.00000000E+00  0.00000000E+00
  0.00000000E+00  0.00000000E+00  0.00000000E+00
  0.00000000E+00  0.00000000E+00  0.00000000E+00
  0.00000000E+00  0.00000000E+00  0.00000000E+00
  0.00000000E+00  0.00000000E+00  0.00000000E+00
  0.00000000E+00  0.00000000E+00  0.00000000E+00
  0.00000000E+00  0.00000000E+00  0.00000000E+00
  0.00000000E+00  0.00000000E+00  0.00000000E+00
  0.00000000E+00  0.00000000E+00  0.00000000E+00
  0.00000000E+00  0.00000000E+00  0.00000000E+00
  0.00000000E+00  0.00000000E+00  0.00000000E+00
  0.00000000E+00  0.00000000E+00  0.00000000E+00
  0.00000000E+00  0.00000000E+00  0.00000000E+00
  0.00000000E+00  0.00000000E+00  0.00000000E+00
  0.00000000E+00  0.00000000E+00  0.00000000E+00
  0.00000000E+00  0.00000000E+00  0.00000000E+00
  0.00000000E+00  0.00000000E+00  0.00000000E+00
  0.00000000E+00  0.00000000E+00  0.00000000E+00
  0.00000000E+00  0.00000000E+00  0.00000000E+00
  0.00000000E+00  0.00000000E+00  0.00000000E+00
  0.00000000E+00  0.00000000E+00  0.00000000E+00
  0.00000000E+00  0.00000000E+00  0.00000000E+00
