Primitive Cell                          
   1.00000000000000     
    24.8806860962211616   -0.0920189320843714    0.0000000000000000
    -0.1088102165996681   24.9160588754915757    0.0000000000000000
     0.0000000000000000    0.0000000000000000   20.0000000000000000
   H    C    N 
    40    58    14
Direct
  0.2929240578129537  0.9051978105642036  0.4011666708422652
  0.1947693436560911  0.9229113126008812  0.4021487579066516
  0.9952646768271407  0.7883607574927254  0.4117088645957097
  0.9748253672246108  0.6906635833484387  0.4150492013865161
  0.7908725298585182  0.0074481441392535  0.4087446631532288
  0.6933520576057290  0.0280472275592203  0.4101837530186785
  0.0745172206811304  0.1963501594479879  0.4000016623474991
  0.0919573331870680  0.2946537525670365  0.3987432059392049
  0.6202591255015406  0.0836402547946946  0.4607870867729105
  0.0983611856155591  0.3790837515481655  0.4594674312452440
  0.3778044832277772  0.9011776437313230  0.4610508826640469
  0.9158436227811890  0.6181197038088868  0.4660679317915069
  0.4571259489821031  0.0634208607021449  0.4263943455644039
  0.3802186066653874  0.0036774125848140  0.4368074808430222
  0.9346349916333594  0.4557827535158268  0.4307387709102102
  0.9951081175256675  0.3798931057038573  0.4380610507631459
  0.3085960650200761  0.9819745265480933  0.5930552324894336
  0.2103360947877633  0.9985273043245613  0.5946253724538124
  0.2016905512139644  0.0710128018895873  0.4924449238228448
  0.1420795792690157  0.1604616785393347  0.4956529651193122
  0.0368803317202477  0.0254126674448258  0.5007915053538525
  0.9644010731561536  0.9750111033129727  0.5053108744021770
  0.1599347662258239  0.8610020480353811  0.5120368441866816
  0.0703440842596663  0.8001961484567488  0.5166299001222683
  0.9266125831669854  0.8065729155816470  0.6077698838847212
  0.9050998827489352  0.7091178888978575  0.6106428541221831
  0.8591503280478818  0.8399386486182436  0.5081833733630745
  0.7994715635313909  0.9293925765084694  0.5106203086753140
  0.9308674850453755  0.2000673610888697  0.4905469807808203
  0.8413449584692145  0.1391051502983487  0.4949175851212360
  0.8073469617374656  0.0731003467901914  0.6066828487883100
  0.7099608754679352  0.0945328197073039  0.6078773037210183
  0.0205095943258655  0.3083232396564739  0.5939581602325390
  0.0042786492367171  0.2098554651462479  0.5957766791571402
  0.6270641864387230  0.1085021384737530  0.5433222125158110
  0.0781308370784828  0.3833436501217093  0.5441012561969956
  0.3824603249578402  0.9227371720591648  0.5451497531444645
  0.8927965729270966  0.6251956046367582  0.5493217491796045
  0.6240597710821731  0.0036851428741898  0.5701761510670522
  0.9982374767118856  0.6230644482190115  0.5727173664367058
  0.0725479430440927  0.2761755427669641  0.4421174239732011
  0.0630753944404887  0.2208368372514613  0.4428489915731362
  0.7182995903168958  0.0378937114677242  0.4534762967448742
  0.7729437468647546  0.0260484991340704  0.4527113583611992
  0.9758663255252884  0.7708318283906053  0.4555778279254312
  0.9641318287624543  0.7160762363006370  0.4574311344334632
  0.2197366571516994  0.9357713178940088  0.4441208770140364
  0.2749659774921369  0.9260590287964732  0.4436124186458343
  0.4770649984383368  0.0368584353369741  0.4621615644984303
  0.4487027604045508  0.9930291136568385  0.4913345079211737
  0.9621839798349541  0.4760130197830605  0.4654683613831878
  0.0068128226798265  0.4483111676092477  0.4927027720831418
  0.1582548079144956  0.0735260006283909  0.4947736036939645
  0.1277873793636672  0.1192420722131047  0.4960241231419715
  0.0722623978520289  0.1034183161909112  0.4980583657935966
  0.1225098076193518  0.0280756320325466  0.4973767069016120
  0.1369875896992951  0.9736029442115139  0.4985621103964846
  0.1008862696041604  0.9295681646742224  0.5010339240825772
  0.0281811315964049  0.8802187797563619  0.5047850302294918
  0.0732537118350365  0.8433902597942833  0.5103050726670375
  0.1185806170057262  0.8741519990618229  0.5079890535124818
  0.9739310821904112  0.8630501103717023  0.5069490407700172
  0.9290278882925662  0.8969945475785863  0.5072539826127809
  0.8787488391105853  0.9722383309794651  0.5074760323724945
  0.8429406186746675  0.9268393537021353  0.5090896517372414
  0.8734459484049353  0.8811514128527307  0.5082320285426292
  0.8643948403756880  0.0266608216681306  0.5069037080727412
  0.9005380273174097  0.0706124138255433  0.5048634626377790
  0.9731585845082549  0.1200147942370080  0.5014450206420449
  0.9280318919708321  0.1568321337431300  0.4963955097600419
  0.8827440476021096  0.1260159736911319  0.4985720876544661
  0.0273588437299637  0.1373224033142506  0.4992493257413315
  0.0382067893576590  0.1962156128013604  0.4979658991475659
  0.0232154964710531  0.2285932028096909  0.5523673656747263
  0.0325052210684973  0.2837715225991815  0.5513417208123315
  0.0573363794570341  0.3083358910889586  0.4961883156104747
  0.8057411125450642  0.0385739001183794  0.5078132563644147
  0.7822872872655537  0.0632662467986904  0.5635645358253498
  0.7275692002547416  0.0752008493622114  0.5641006144644720
  0.6949325720187076  0.0626934384767495  0.5091369139291970
  0.9623368586387073  0.8042951457918690  0.5095075256666064
  0.9383528674621147  0.6931617928469720  0.5129861635856017
  0.9250327433908865  0.7263634517858861  0.5668683356684241
  0.9369143581741071  0.7811990317015400  0.5652794462352375
  0.1957738144088452  0.9623819973366210  0.4981190174171317
  0.2286096903962758  0.9786092235232715  0.5517934234533328
  0.2836710416376604  0.9690530174743373  0.5509993282322014
  0.3076403801164389  0.9427360197400318  0.4968042057437430
  0.6354364490503670  0.0736786683541695  0.5107932769826817
  0.0657645425906637  0.3683265630827677  0.4947631088744160
  0.3675808163209027  0.9342748600064255  0.4955314979843166
  0.9270214574683067  0.6336469471917852  0.5155816899776582
  0.5535384755391135  0.0161046059348635  0.5205703136563145
  0.5248223887704526  0.9725942720656988  0.5504203047708529
  0.5518587194389113  0.9400416205852764  0.5983212456031666
  0.9845019069680561  0.5525275611034601  0.5234209963175900
  0.0287358790214896  0.5244156071726991  0.5514820345175551
  0.0625971341823828  0.5515600510917693  0.5983150030733739
  0.5279013229270788  0.0480420063028788  0.4763337874113134
  0.3952314492173059  0.9840087770934574  0.4769805694158080
  0.9513735507095191  0.5265520338487306  0.4803979741127620
  0.0157129795785877  0.3951929021089597  0.4775170509999640
  0.0711479024835242  0.0481656226064686  0.4988882656664941
  0.0458708395330660  0.9323345798285771  0.4996319924253712
  0.9301453770769896  0.9522196581243563  0.5065456691994257
  0.9555537223457193  0.0678581164061356  0.5060879520877677
  0.4733131750254600  0.9610665947583072  0.5352294401691395
  0.5780411418114184  0.9166052123724455  0.6370704193750996
  0.6064578657967843  0.0260494333580326  0.5339575644871815
  0.0397960307910594  0.4731994149142338  0.5356269180784494
  0.0872603505600864  0.5775042100783381  0.6365137249258126
  0.9749640950938101  0.6051810531002033  0.5373222413151808
 
  0.00000000E+00  0.00000000E+00  0.00000000E+00
  0.00000000E+00  0.00000000E+00  0.00000000E+00
  0.00000000E+00  0.00000000E+00  0.00000000E+00
  0.00000000E+00  0.00000000E+00  0.00000000E+00
  0.00000000E+00  0.00000000E+00  0.00000000E+00
  0.00000000E+00  0.00000000E+00  0.00000000E+00
  0.00000000E+00  0.00000000E+00  0.00000000E+00
  0.00000000E+00  0.00000000E+00  0.00000000E+00
  0.00000000E+00  0.00000000E+00  0.00000000E+00
  0.00000000E+00  0.00000000E+00  0.00000000E+00
  0.00000000E+00  0.00000000E+00  0.00000000E+00
  0.00000000E+00  0.00000000E+00  0.00000000E+00
  0.00000000E+00  0.00000000E+00  0.00000000E+00
  0.00000000E+00  0.00000000E+00  0.00000000E+00
  0.00000000E+00  0.00000000E+00  0.00000000E+00
  0.00000000E+00  0.00000000E+00  0.00000000E+00
  0.00000000E+00  0.00000000E+00  0.00000000E+00
  0.00000000E+00  0.00000000E+00  0.00000000E+00
  0.00000000E+00  0.00000000E+00  0.00000000E+00
  0.00000000E+00  0.00000000E+00  0.00000000E+00
  0.00000000E+00  0.00000000E+00  0.00000000E+00
  0.00000000E+00  0.00000000E+00  0.00000000E+00
  0.00000000E+00  0.00000000E+00  0.00000000E+00
  0.00000000E+00  0.00000000E+00  0.00000000E+00
  0.00000000E+00  0.00000000E+00  0.00000000E+00
  0.00000000E+00  0.00000000E+00  0.00000000E+00
  0.00000000E+00  0.00000000E+00  0.00000000E+00
  0.00000000E+00  0.00000000E+00  0.00000000E+00
  0.00000000E+00  0.00000000E+00  0.00000000E+00
  0.00000000E+00  0.00000000E+00  0.00000000E+00
  0.00000000E+00  0.00000000E+00  0.00000000E+00
  0.00000000E+00  0.00000000E+00  0.00000000E+00
  0.00000000E+00  0.00000000E+00  0.00000000E+00
  0.00000000E+00  0.00000000E+00  0.00000000E+00
  0.00000000E+00  0.00000000E+00  0.00000000E+00
  0.00000000E+00  0.00000000E+00  0.00000000E+00
  0.00000000E+00  0.00000000E+00  0.00000000E+00
  0.00000000E+00  0.00000000E+00  0.00000000E+00
  0.00000000E+00  0.00000000E+00  0.00000000E+00
  0.00000000E+00  0.00000000E+00  0.00000000E+00
  0.00000000E+00  0.00000000E+00  0.00000000E+00
  0.00000000E+00  0.00000000E+00  0.00000000E+00
  0.00000000E+00  0.00000000E+00  0.00000000E+00
  0.00000000E+00  0.00000000E+00  0.00000000E+00
  0.00000000E+00  0.00000000E+00  0.00000000E+00
  0.00000000E+00  0.00000000E+00  0.00000000E+00
  0.00000000E+00  0.00000000E+00  0.00000000E+00
  0.00000000E+00  0.00000000E+00  0.00000000E+00
  0.00000000E+00  0.00000000E+00  0.00000000E+00
  0.00000000E+00  0.00000000E+00  0.00000000E+00
  0.00000000E+00  0.00000000E+00  0.00000000E+00
  0.00000000E+00  0.00000000E+00  0.00000000E+00
  0.00000000E+00  0.00000000E+00  0.00000000E+00
  0.00000000E+00  0.00000000E+00  0.00000000E+00
  0.00000000E+00  0.00000000E+00  0.00000000E+00
  0.00000000E+00  0.00000000E+00  0.00000000E+00
  0.00000000E+00  0.00000000E+00  0.00000000E+00
  0.00000000E+00  0.00000000E+00  0.00000000E+00
  0.00000000E+00  0.00000000E+00  0.00000000E+00
  0.00000000E+00  0.00000000E+00  0.00000000E+00
  0.00000000E+00  0.00000000E+00  0.00000000E+00
  0.00000000E+00  0.00000000E+00  0.00000000E+00
  0.00000000E+00  0.00000000E+00  0.00000000E+00
  0.00000000E+00  0.00000000E+00  0.00000000E+00
  0.00000000E+00  0.00000000E+00  0.00000000E+00
  0.00000000E+00  0.00000000E+00  0.00000000E+00
  0.00000000E+00  0.00000000E+00  0.00000000E+00
  0.00000000E+00  0.00000000E+00  0.00000000E+00
  0.00000000E+00  0.00000000E+00  0.00000000E+00
  0.00000000E+00  0.00000000E+00  0.00000000E+00
  0.00000000E+00  0.00000000E+00  0.00000000E+00
  0.00000000E+00  0.00000000E+00  0.00000000E+00
  0.00000000E+00  0.00000000E+00  0.00000000E+00
  0.00000000E+00  0.00000000E+00  0.00000000E+00
  0.00000000E+00  0.00000000E+00  0.00000000E+00
  0.00000000E+00  0.00000000E+00  0.00000000E+00
  0.00000000E+00  0.00000000E+00  0.00000000E+00
  0.00000000E+00  0.00000000E+00  0.00000000E+00
  0.00000000E+00  0.00000000E+00  0.00000000E+00
  0.00000000E+00  0.00000000E+00  0.00000000E+00
  0.00000000E+00  0.00000000E+00  0.00000000E+00
  0.00000000E+00  0.00000000E+00  0.00000000E+00
  0.00000000E+00  0.00000000E+00  0.00000000E+00
  0.00000000E+00  0.00000000E+00  0.00000000E+00
  0.00000000E+00  0.00000000E+00  0.00000000E+00
  0.00000000E+00  0.00000000E+00  0.00000000E+00
  0.00000000E+00  0.00000000E+00  0.00000000E+00
  0.00000000E+00  0.00000000E+00  0.00000000E+00
  0.00000000E+00  0.00000000E+00  0.00000000E+00
  0.00000000E+00  0.00000000E+00  0.00000000E+00
  0.00000000E+00  0.00000000E+00  0.00000000E+00
  0.00000000E+00  0.00000000E+00  0.00000000E+00
  0.00000000E+00  0.00000000E+00  0.00000000E+00
  0.00000000E+00  0.00000000E+00  0.00000000E+00
  0.00000000E+00  0.00000000E+00  0.00000000E+00
  0.00000000E+00  0.00000000E+00  0.00000000E+00
  0.00000000E+00  0.00000000E+00  0.00000000E+00
  0.00000000E+00  0.00000000E+00  0.00000000E+00
  0.00000000E+00  0.00000000E+00  0.00000000E+00
  0.00000000E+00  0.00000000E+00  0.00000000E+00
  0.00000000E+00  0.00000000E+00  0.00000000E+00
  0.00000000E+00  0.00000000E+00  0.00000000E+00
  0.00000000E+00  0.00000000E+00  0.00000000E+00
  0.00000000E+00  0.00000000E+00  0.00000000E+00
  0.00000000E+00  0.00000000E+00  0.00000000E+00
  0.00000000E+00  0.00000000E+00  0.00000000E+00
  0.00000000E+00  0.00000000E+00  0.00000000E+00
  0.00000000E+00  0.00000000E+00  0.00000000E+00
  0.00000000E+00  0.00000000E+00  0.00000000E+00
  0.00000000E+00  0.00000000E+00  0.00000000E+00
  0.00000000E+00  0.00000000E+00  0.00000000E+00
  0.00000000E+00  0.00000000E+00  0.00000000E+00
