Primitive Cell                          
   1.00000000000000     
    25.4469612188404284    0.0417941690526541    0.0000000000000000
     0.0252200282182893   25.4241137437340612    0.0000000000000000
     0.0000000000000000    0.0000000000000000   20.0000000000000000
   C    H    N 
    58    32    14
Direct
  0.2147618340304689  0.9750912562094669  0.4504441557605574
  0.2692211907288637  0.9780863200227614  0.4520791095960988
  0.9779086527776286  0.7631304974057826  0.4516668298029458
  0.9805967643075135  0.7085939059910373  0.4524337716549098
  0.7100788537241556  0.9942381635979558  0.4516264357186515
  0.7645794568449915  0.9958576621840578  0.4497218020253086
  0.9956263656636892  0.2126765510814579  0.4466326705655987
  0.9939901003844938  0.2672373210139156  0.4488648495989409
  0.9999724359327686  0.4643470338635964  0.4106010182632360
  0.9881494621286961  0.4344085184923827  0.4683119218352232
  0.5130503151464865  0.0005163067494323  0.4126599168285310
  0.5429830229300805  0.9875472102042906  0.4700091594731433
  0.0829796535764231  0.1289251460949572  0.4984161449985152
  0.1227028776181029  0.0922740778383400  0.4985208032351878
  0.0992890878369366  0.0409989954408445  0.5005515629220412
  0.0338647608919942  0.1013721585617660  0.4992851683081270
  0.9833546355027565  0.1238360137590746  0.5005769716487052
  0.9355384341510344  0.0958470784751029  0.5013210532259293
  0.8774068565224482  0.0331702621496959  0.5018645342472396
  0.8479427543445937  0.0824824705727565  0.5022677513529956
  0.8842317209821005  0.1216075720998830  0.5014742465618696
  0.8531733579072736  0.9833153155912626  0.5038082636370689
  0.8794506554537875  0.9346440024423615  0.5045257907660954
  0.9446986238443316  0.8740752160554663  0.5038480062945681
  0.8954654354603875  0.8467002964558930  0.5062803904274418
  0.8558557302833165  0.8834762687879163  0.5060750156703264
  0.9952793494813932  0.8515823578186925  0.5038411815878590
  0.0431531320483174  0.8796640951368104  0.5029877916864649
  0.1013795103385391  0.9424053569948398  0.5017468724656950
  0.1307920022557525  0.8930826465715995  0.5025174526578624
  0.0945123703281538  0.8539728019587969  0.5022570635830306
  0.1256938844230433  0.9923061643937814  0.5017189512762172
  0.1841821624539861  0.9946526322476927  0.5037308998077634
  0.2947720117221593  0.0012405210555286  0.5071281094245421
  0.2644647758410201  0.0208559440653957  0.5603597855097178
  0.2099076899977348  0.0172698569077170  0.5588371417483913
  0.9978093819007583  0.7930423137979759  0.5052848714955758
  0.0037787769361302  0.6822864194549894  0.5069633101001543
  0.0237444776342528  0.7119213053306552  0.5605301056600496
  0.0203927687976488  0.7665780631588888  0.5599255692231182
  0.7946364433112549  0.9813710082675229  0.5059652865825228
  0.7685307764176628  0.9650652121773859  0.5642095537622396
  0.7138666133735754  0.9634569921944731  0.5663133069287127
  0.6838657293114281  0.9780477230390261  0.5101839594594892
  0.9809685509980213  0.1824380917253734  0.5025885302170394
  0.9644020836403087  0.2084474873386810  0.5608721707277269
  0.9775739180469927  0.2933385641623047  0.5074655394940848
  0.9626867111805453  0.2631568158831001  0.5632674807701861
  0.0082730413920018  0.6251350621753602  0.5085196954144138
  0.6267708866219479  0.9759884667124084  0.5140027389902997
  0.9756053471695978  0.3504963418725708  0.5116113858849758
  0.3517984774030580  0.0061660293978179  0.5096435652028930
  0.9878747153470471  0.5415223218255321  0.4675651972480139
  0.9752815683609981  0.5113941207690331  0.5257788058177439
  0.9603998467110699  0.5367498859730020  0.5871230909914686
  0.4359675958066447  0.9870988340358480  0.4690846064642358
  0.4660751363453599  0.9736865148685752  0.5270452430227053
  0.4408937363511356  0.9585228834678361  0.5883459894804375
  0.0050736091397354  0.2907843573131714  0.4055646310710586
  0.0080193059700306  0.1925980871352380  0.4010402354213056
  0.7847829869962197  0.0081788698359517  0.4042458326183365
  0.6866638647186178  0.0051809451322669  0.4081172046807779
  0.9609535574015879  0.7834715266375127  0.4087174428991887
  0.9657988366365515  0.6853966052121052  0.4106506531626906
  0.2929473155569440  0.9635357708639916  0.4105686049633519
  0.1950135151717589  0.9580582996207383  0.4071810089028816
  0.0097100792554201  0.4439865932299440  0.3640610522404941
  0.5333696971741233  0.0113543427451077  0.3665230480758694
  0.9499906182951605  0.2830483177787073  0.6089222459718542
  0.9531776886016203  0.1852787051900364  0.6044685047412912
  0.0868899037431987  0.1713797882591521  0.4976512158917785
  0.1646186300401666  0.0997003724980061  0.4971214435178055
  0.0186324200503520  0.0189866707313797  0.5014512569049003
  0.9601934135741175  0.9563662621499986  0.5019278178439350
  0.8772249922710316  0.1637401121657334  0.5009118860114654
  0.8054596631446884  0.0863914300058184  0.5030937361299621
  0.7915452059285712  0.9540756158835819  0.6080728885917495
  0.6938657386095599  0.9510349869356887  0.6119527022383764
  0.8138781468009597  0.8762877942698353  0.5069399291170740
  0.8913443805741750  0.8042961450595385  0.5081077876732181
  0.1732514421084375  0.8889928456539948  0.5031507980419434
  0.1017467059549801  0.8118961990968216  0.5015202339998623
  0.0353445513338357  0.7893708495458185  0.6019801498250033
  0.0413993785739279  0.6917280953717366  0.6032091706949672
  0.1866138774577024  0.0319500775500927  0.6006664078417430
  0.2840633682036895  0.0384551462087330  0.6034524290725045
  0.0332415242489219  0.6085572627879898  0.5485312197114638
  0.6095872935621571  0.9620620998493266  0.5614418704455133
  0.9610294475891692  0.3676276021231075  0.5588088063657253
  0.3676427000752582  0.0306437639595458  0.5505375749221955
  0.9993993404593624  0.5164892992729477  0.4098739227679786
  0.9902347441860258  0.3798839415930644  0.4622804636143485
  0.4609555082201595  0.9998049908569158  0.4118362384434917
  0.5974641985810862  0.9898173720373293  0.4641612938954793
  0.0457163285750752  0.0485130259358826  0.5002697927863053
  0.9304704007996918  0.0421998709453106  0.5011698541605796
  0.9329940893395445  0.9269456720759948  0.5030113778989929
  0.0482622800112580  0.9333305366789375  0.5021611783339566
  0.9755584484779973  0.4586843513529573  0.5256921665102681
  0.9482768486892112  0.5579431903462790  0.6366607433101805
  0.9857203723000012  0.5955954238412957  0.4649249189579621
  0.5187371688801292  0.9738407959442128  0.5269180619662066
  0.4200219074940321  0.9466386514220417  0.6381554481725757
  0.3820069943009088  0.9845818809754476  0.4659122595364948
 
  0.00000000E+00  0.00000000E+00  0.00000000E+00
  0.00000000E+00  0.00000000E+00  0.00000000E+00
  0.00000000E+00  0.00000000E+00  0.00000000E+00
  0.00000000E+00  0.00000000E+00  0.00000000E+00
  0.00000000E+00  0.00000000E+00  0.00000000E+00
  0.00000000E+00  0.00000000E+00  0.00000000E+00
  0.00000000E+00  0.00000000E+00  0.00000000E+00
  0.00000000E+00  0.00000000E+00  0.00000000E+00
  0.00000000E+00  0.00000000E+00  0.00000000E+00
  0.00000000E+00  0.00000000E+00  0.00000000E+00
  0.00000000E+00  0.00000000E+00  0.00000000E+00
  0.00000000E+00  0.00000000E+00  0.00000000E+00
  0.00000000E+00  0.00000000E+00  0.00000000E+00
  0.00000000E+00  0.00000000E+00  0.00000000E+00
  0.00000000E+00  0.00000000E+00  0.00000000E+00
  0.00000000E+00  0.00000000E+00  0.00000000E+00
  0.00000000E+00  0.00000000E+00  0.00000000E+00
  0.00000000E+00  0.00000000E+00  0.00000000E+00
  0.00000000E+00  0.00000000E+00  0.00000000E+00
  0.00000000E+00  0.00000000E+00  0.00000000E+00
  0.00000000E+00  0.00000000E+00  0.00000000E+00
  0.00000000E+00  0.00000000E+00  0.00000000E+00
  0.00000000E+00  0.00000000E+00  0.00000000E+00
  0.00000000E+00  0.00000000E+00  0.00000000E+00
  0.00000000E+00  0.00000000E+00  0.00000000E+00
  0.00000000E+00  0.00000000E+00  0.00000000E+00
  0.00000000E+00  0.00000000E+00  0.00000000E+00
  0.00000000E+00  0.00000000E+00  0.00000000E+00
  0.00000000E+00  0.00000000E+00  0.00000000E+00
  0.00000000E+00  0.00000000E+00  0.00000000E+00
  0.00000000E+00  0.00000000E+00  0.00000000E+00
  0.00000000E+00  0.00000000E+00  0.00000000E+00
  0.00000000E+00  0.00000000E+00  0.00000000E+00
  0.00000000E+00  0.00000000E+00  0.00000000E+00
  0.00000000E+00  0.00000000E+00  0.00000000E+00
  0.00000000E+00  0.00000000E+00  0.00000000E+00
  0.00000000E+00  0.00000000E+00  0.00000000E+00
  0.00000000E+00  0.00000000E+00  0.00000000E+00
  0.00000000E+00  0.00000000E+00  0.00000000E+00
  0.00000000E+00  0.00000000E+00  0.00000000E+00
  0.00000000E+00  0.00000000E+00  0.00000000E+00
  0.00000000E+00  0.00000000E+00  0.00000000E+00
  0.00000000E+00  0.00000000E+00  0.00000000E+00
  0.00000000E+00  0.00000000E+00  0.00000000E+00
  0.00000000E+00  0.00000000E+00  0.00000000E+00
  0.00000000E+00  0.00000000E+00  0.00000000E+00
  0.00000000E+00  0.00000000E+00  0.00000000E+00
  0.00000000E+00  0.00000000E+00  0.00000000E+00
  0.00000000E+00  0.00000000E+00  0.00000000E+00
  0.00000000E+00  0.00000000E+00  0.00000000E+00
  0.00000000E+00  0.00000000E+00  0.00000000E+00
  0.00000000E+00  0.00000000E+00  0.00000000E+00
  0.00000000E+00  0.00000000E+00  0.00000000E+00
  0.00000000E+00  0.00000000E+00  0.00000000E+00
  0.00000000E+00  0.00000000E+00  0.00000000E+00
  0.00000000E+00  0.00000000E+00  0.00000000E+00
  0.00000000E+00  0.00000000E+00  0.00000000E+00
  0.00000000E+00  0.00000000E+00  0.00000000E+00
  0.00000000E+00  0.00000000E+00  0.00000000E+00
  0.00000000E+00  0.00000000E+00  0.00000000E+00
  0.00000000E+00  0.00000000E+00  0.00000000E+00
  0.00000000E+00  0.00000000E+00  0.00000000E+00
  0.00000000E+00  0.00000000E+00  0.00000000E+00
  0.00000000E+00  0.00000000E+00  0.00000000E+00
  0.00000000E+00  0.00000000E+00  0.00000000E+00
  0.00000000E+00  0.00000000E+00  0.00000000E+00
  0.00000000E+00  0.00000000E+00  0.00000000E+00
  0.00000000E+00  0.00000000E+00  0.00000000E+00
  0.00000000E+00  0.00000000E+00  0.00000000E+00
  0.00000000E+00  0.00000000E+00  0.00000000E+00
  0.00000000E+00  0.00000000E+00  0.00000000E+00
  0.00000000E+00  0.00000000E+00  0.00000000E+00
  0.00000000E+00  0.00000000E+00  0.00000000E+00
  0.00000000E+00  0.00000000E+00  0.00000000E+00
  0.00000000E+00  0.00000000E+00  0.00000000E+00
  0.00000000E+00  0.00000000E+00  0.00000000E+00
  0.00000000E+00  0.00000000E+00  0.00000000E+00
  0.00000000E+00  0.00000000E+00  0.00000000E+00
  0.00000000E+00  0.00000000E+00  0.00000000E+00
  0.00000000E+00  0.00000000E+00  0.00000000E+00
  0.00000000E+00  0.00000000E+00  0.00000000E+00
  0.00000000E+00  0.00000000E+00  0.00000000E+00
  0.00000000E+00  0.00000000E+00  0.00000000E+00
  0.00000000E+00  0.00000000E+00  0.00000000E+00
  0.00000000E+00  0.00000000E+00  0.00000000E+00
  0.00000000E+00  0.00000000E+00  0.00000000E+00
  0.00000000E+00  0.00000000E+00  0.00000000E+00
  0.00000000E+00  0.00000000E+00  0.00000000E+00
  0.00000000E+00  0.00000000E+00  0.00000000E+00
  0.00000000E+00  0.00000000E+00  0.00000000E+00
  0.00000000E+00  0.00000000E+00  0.00000000E+00
  0.00000000E+00  0.00000000E+00  0.00000000E+00
  0.00000000E+00  0.00000000E+00  0.00000000E+00
  0.00000000E+00  0.00000000E+00  0.00000000E+00
  0.00000000E+00  0.00000000E+00  0.00000000E+00
  0.00000000E+00  0.00000000E+00  0.00000000E+00
  0.00000000E+00  0.00000000E+00  0.00000000E+00
  0.00000000E+00  0.00000000E+00  0.00000000E+00
  0.00000000E+00  0.00000000E+00  0.00000000E+00
  0.00000000E+00  0.00000000E+00  0.00000000E+00
  0.00000000E+00  0.00000000E+00  0.00000000E+00
  0.00000000E+00  0.00000000E+00  0.00000000E+00
  0.00000000E+00  0.00000000E+00  0.00000000E+00
  0.00000000E+00  0.00000000E+00  0.00000000E+00
