Primitive Cell                          
   1.00000000000000     
    29.3020246001624045   -0.0111590955766098    0.0000000000000000
   -14.6606037759685197   25.2547961943977626    0.0000000000000000
     0.0000000000000000    0.0000000000000000   20.0000000000000000
   H    C    O    N 
    51    60     6     9
Direct
  0.2781122304125674  0.5668699834639241  0.5106250070390175
  0.2907927272419712  0.7208964870078560  0.5099694608665715
  0.4317311396534294  0.7086205680729094  0.5039706212034716
  0.4353135160255590  0.7887627681731786  0.4948277461248054
  0.2105016464630012  0.6440074505001832  0.5036006879269195
  0.3542881161027083  0.5632820254646731  0.4976688524493227
  0.7032863374622025  0.4317664193716837  0.4803085981480422
  0.7300859022148174  0.2989865971713428  0.4789859552309537
  0.5707100979489326  0.2716163014627639  0.4787229859577877
  0.5881822649393769  0.2029191045400012  0.4893572041011112
  0.7986829989989630  0.3855269804532213  0.4917311820724990
  0.6166660198413325  0.4135343167535410  0.4916923430290865
  0.5517971860828723  0.0409018903762615  0.3760154773752191
  0.6159313387130041  0.1363280011010204  0.3794473208472198
  0.4524021790627799  0.8606172113867245  0.3882527887206138
  0.3474137136053486  0.8071739694354463  0.5218965752486326
  0.3588636493153743  0.7990034427650912  0.4366419514481592
  0.9625240115135725  0.5160875186364038  0.3816506617303688
  0.8674536305346905  0.4850139680749308  0.3830425623385452
  0.1413424028737964  0.5950151812691971  0.3987854638723718
  0.1913648501575267  0.5369919666177267  0.5289633629030774
  0.1996137026742488  0.5567493866856452  0.4437156798021675
  0.4870821495297122  0.4453758152973677  0.3764641878016732
  0.5191457876284247  0.3821372951591897  0.3802759376582827
  0.4059203596296612  0.5435170379108669  0.3887389682700331
  0.4616011909044673  0.6528084589684795  0.5169014003915890
  0.4385237746855424  0.6380789873239792  0.4331138662928851
  0.4062867054745425  0.8860142031466296  0.5831065311215085
  0.6163535806562521  0.1314004477405319  0.5944207380850486
  0.5616712078903703  0.0019283172769136  0.6211769542627081
  0.5509528488824671  0.0528675115252213  0.6512156127542070
  0.4652587936969113  0.9649899150913299  0.6437165684790429
  0.4649702329728953  0.0130062846234509  0.5898674524595720
  0.6782770642947895  0.2116087951310490  0.5378195202811469
  0.6883907092833681  0.2115265020969375  0.4501757499842185
  0.1113962410231437  0.5136704344059453  0.5875929033116165
  0.8677746309742744  0.4807336517916951  0.5980482928741964
  0.9965179593694984  0.5538900577258588  0.6295229748725362
  0.9448232525821538  0.4910257016548556  0.6555893591031889
  0.0321066895370095  0.4927579580007091  0.6477720626385377
  0.9849617530990855  0.4466342598986444  0.5910999305267524
  0.7895999703079966  0.4672107177420557  0.5396787953136126
  0.7908804677692771  0.4777223471600891  0.4519616574096403
  0.4829229818347258  0.5956077001778510  0.5798975077795987
  0.5194663423336081  0.3866682409481186  0.5952807572839092
  0.4448564928416801  0.4408297610342373  0.6231685355642256
  0.5074589739738045  0.4531570778369485  0.6510474129162205
  0.5043049537801139  0.5381929243894987  0.6416544643209789
  0.5515293416092888  0.5380152815670911  0.5865263816255322
  0.5352675223744257  0.3226432229383533  0.5386197604296967
  0.5253579264238439  0.3127363241533914  0.4508989964255292
  0.3649121740512058  0.7209255970135260  0.5073522183104302
  0.3888282348997052  0.6893430257870534  0.5059428611023691
  0.3574519684421489  0.6341280453256957  0.5076465311627061
  0.3019480305561331  0.6099553464863661  0.5096144757314676
  0.2783769782220133  0.6413812215924892  0.5108622821782589
  0.3099104312199188  0.6971009015333394  0.5092753703049695
  0.6480662976831155  0.2792158228767860  0.4787775716333726
  0.6131036361862527  0.2992967847027543  0.4793006026993609
  0.6331794406109665  0.3540108461682436  0.4793891792365699
  0.6883220171213935  0.3892247071646153  0.4802483385978888
  0.7227757179510022  0.3691693577835622  0.4798003394414536
  0.7026219139319281  0.3138705533194610  0.4795579564814574
  0.4225647067272291  0.8670022261284416  0.4852150073957020
  0.4574543392826698  0.8857814914963882  0.4311926256222876
  0.5004253811529367  0.9372255067134887  0.4325478142068846
  0.5089766623317686  0.9732646342140114  0.4844981177363508
  0.5487397896021164  0.0302575859717393  0.4837292434366347
  0.5668268012994417  0.0598198007882047  0.4243211590906739
  0.6028383047622299  0.1138774095433277  0.4260027458104787
  0.3777909631568619  0.8105056389501470  0.4865643066483116
  0.1325235443505335  0.5535800988655311  0.4924697583212776
  0.1153207617748180  0.5729261607704998  0.4402223428337493
  0.0644220953808272  0.5652652832000129  0.4416350991776739
  0.0273475805986507  0.5353961086612600  0.4915444676633598
  0.9707301830555437  0.5186489398453844  0.4897188075359296
  0.9426287847161632  0.5100430473611937  0.4296331720260866
  0.8887987818870542  0.4921489218398847  0.4301461226619665
  0.1884853574493519  0.5644501637453061  0.4937186761461376
  0.4449100803941235  0.5763402904589299  0.4836103623864290
  0.4273033685619865  0.5398786783506253  0.4311425058735381
  0.4359348808233534  0.4971327795258134  0.4334569961883972
  0.4649711451180849  0.4903252846402282  0.4847109955514313
  0.4824776220387648  0.4509489435115626  0.4842952086949310
  0.4924717093212010  0.4316765961560378  0.4249313474618646
  0.5109005493289942  0.3961493988447273  0.4268076103186829
  0.4331645780639093  0.6209627077554103  0.4839804590828223
  0.4741380553098509  0.9530013533097446  0.5397971283165646
  0.4322897529605498  0.9008257691182564  0.5395847590033753
  0.6217131941196925  0.1401504145595780  0.4871822176777414
  0.6029388228331598  0.1110744026047357  0.5463707063403120
  0.5664908427748188  0.0568059300290926  0.5456023804436185
  0.5432020979485870  0.0258490960263558  0.6089781824977507
  0.4838083831264299  0.9889251600041007  0.5988213018207915
  0.6576533971051290  0.1993659199385149  0.4889961367493001
  0.0460599079395578  0.5177586414835247  0.5453222866089860
  0.0977594801579329  0.5272669950365980  0.5452364555353668
  0.8613769446613020  0.4821254095356338  0.4907556569102240
  0.8890327396165034  0.4896170201710461  0.5505423628449861
  0.9430216128209210  0.5071694165414797  0.5509257451051823
  0.9725731602492473  0.5119151569590201  0.6145772905048759
  0.0091061209240664  0.4893042034858439  0.6027021593334467
  0.8023856613761637  0.4589083364179203  0.4912244947106501
  0.4809434619051629  0.5266569349670931  0.5385993812671472
  0.4705322838348209  0.5683382533570551  0.5375101821077735
  0.5200710590331568  0.3789083432641789  0.4881004221487899
  0.5112279399028381  0.3988659483486856  0.5472067121360311
  0.4931312956737486  0.4349296700557588  0.5462303263470147
  0.4869484617223847  0.4595524725462283  0.6092533654653423
  0.5087945130040623  0.5187795856108792  0.5970726043390897
  0.5436751586434951  0.3434730824024044  0.4899025216738337
  0.5215533760971667  0.9396986803766012  0.3198897666264884
  0.5860131839044698  0.9699534627487623  0.3937580519439052
  0.0656589921543329  0.5916887788424248  0.3314483970388196
  0.0328388139011224  0.6205545558977477  0.4090305306598196
  0.4134474789304079  0.4725476847234091  0.3222756334926871
  0.3822408316923500  0.4100554162987464  0.3991745118152679
  0.3972667660815929  0.7757347031492543  0.5080192122413223
  0.2238645613444348  0.6188803585031550  0.5148092846667680
  0.3798156210630168  0.6018751742535358  0.5087071497221061
  0.6266921370152332  0.2247240244259814  0.4759387339672045
  0.7771289808246777  0.4023834295554636  0.4780371128473604
  0.6000442504849843  0.3751752484505886  0.4770863551855413
  0.5390316345802972  0.9505731903873951  0.3778387435256221
  0.0528419722670463  0.5941888830903679  0.3899633264939766
  0.4090346727595247  0.4567632149297296  0.3808920636193633
 
  0.00000000E+00  0.00000000E+00  0.00000000E+00
  0.00000000E+00  0.00000000E+00  0.00000000E+00
  0.00000000E+00  0.00000000E+00  0.00000000E+00
  0.00000000E+00  0.00000000E+00  0.00000000E+00
  0.00000000E+00  0.00000000E+00  0.00000000E+00
  0.00000000E+00  0.00000000E+00  0.00000000E+00
  0.00000000E+00  0.00000000E+00  0.00000000E+00
  0.00000000E+00  0.00000000E+00  0.00000000E+00
  0.00000000E+00  0.00000000E+00  0.00000000E+00
  0.00000000E+00  0.00000000E+00  0.00000000E+00
  0.00000000E+00  0.00000000E+00  0.00000000E+00
  0.00000000E+00  0.00000000E+00  0.00000000E+00
  0.00000000E+00  0.00000000E+00  0.00000000E+00
  0.00000000E+00  0.00000000E+00  0.00000000E+00
  0.00000000E+00  0.00000000E+00  0.00000000E+00
  0.00000000E+00  0.00000000E+00  0.00000000E+00
  0.00000000E+00  0.00000000E+00  0.00000000E+00
  0.00000000E+00  0.00000000E+00  0.00000000E+00
  0.00000000E+00  0.00000000E+00  0.00000000E+00
  0.00000000E+00  0.00000000E+00  0.00000000E+00
  0.00000000E+00  0.00000000E+00  0.00000000E+00
  0.00000000E+00  0.00000000E+00  0.00000000E+00
  0.00000000E+00  0.00000000E+00  0.00000000E+00
  0.00000000E+00  0.00000000E+00  0.00000000E+00
  0.00000000E+00  0.00000000E+00  0.00000000E+00
  0.00000000E+00  0.00000000E+00  0.00000000E+00
  0.00000000E+00  0.00000000E+00  0.00000000E+00
  0.00000000E+00  0.00000000E+00  0.00000000E+00
  0.00000000E+00  0.00000000E+00  0.00000000E+00
  0.00000000E+00  0.00000000E+00  0.00000000E+00
  0.00000000E+00  0.00000000E+00  0.00000000E+00
  0.00000000E+00  0.00000000E+00  0.00000000E+00
  0.00000000E+00  0.00000000E+00  0.00000000E+00
  0.00000000E+00  0.00000000E+00  0.00000000E+00
  0.00000000E+00  0.00000000E+00  0.00000000E+00
  0.00000000E+00  0.00000000E+00  0.00000000E+00
  0.00000000E+00  0.00000000E+00  0.00000000E+00
  0.00000000E+00  0.00000000E+00  0.00000000E+00
  0.00000000E+00  0.00000000E+00  0.00000000E+00
  0.00000000E+00  0.00000000E+00  0.00000000E+00
  0.00000000E+00  0.00000000E+00  0.00000000E+00
  0.00000000E+00  0.00000000E+00  0.00000000E+00
  0.00000000E+00  0.00000000E+00  0.00000000E+00
  0.00000000E+00  0.00000000E+00  0.00000000E+00
  0.00000000E+00  0.00000000E+00  0.00000000E+00
  0.00000000E+00  0.00000000E+00  0.00000000E+00
  0.00000000E+00  0.00000000E+00  0.00000000E+00
  0.00000000E+00  0.00000000E+00  0.00000000E+00
  0.00000000E+00  0.00000000E+00  0.00000000E+00
  0.00000000E+00  0.00000000E+00  0.00000000E+00
  0.00000000E+00  0.00000000E+00  0.00000000E+00
  0.00000000E+00  0.00000000E+00  0.00000000E+00
  0.00000000E+00  0.00000000E+00  0.00000000E+00
  0.00000000E+00  0.00000000E+00  0.00000000E+00
  0.00000000E+00  0.00000000E+00  0.00000000E+00
  0.00000000E+00  0.00000000E+00  0.00000000E+00
  0.00000000E+00  0.00000000E+00  0.00000000E+00
  0.00000000E+00  0.00000000E+00  0.00000000E+00
  0.00000000E+00  0.00000000E+00  0.00000000E+00
  0.00000000E+00  0.00000000E+00  0.00000000E+00
  0.00000000E+00  0.00000000E+00  0.00000000E+00
  0.00000000E+00  0.00000000E+00  0.00000000E+00
  0.00000000E+00  0.00000000E+00  0.00000000E+00
  0.00000000E+00  0.00000000E+00  0.00000000E+00
  0.00000000E+00  0.00000000E+00  0.00000000E+00
  0.00000000E+00  0.00000000E+00  0.00000000E+00
  0.00000000E+00  0.00000000E+00  0.00000000E+00
  0.00000000E+00  0.00000000E+00  0.00000000E+00
  0.00000000E+00  0.00000000E+00  0.00000000E+00
  0.00000000E+00  0.00000000E+00  0.00000000E+00
  0.00000000E+00  0.00000000E+00  0.00000000E+00
  0.00000000E+00  0.00000000E+00  0.00000000E+00
  0.00000000E+00  0.00000000E+00  0.00000000E+00
  0.00000000E+00  0.00000000E+00  0.00000000E+00
  0.00000000E+00  0.00000000E+00  0.00000000E+00
  0.00000000E+00  0.00000000E+00  0.00000000E+00
  0.00000000E+00  0.00000000E+00  0.00000000E+00
  0.00000000E+00  0.00000000E+00  0.00000000E+00
  0.00000000E+00  0.00000000E+00  0.00000000E+00
  0.00000000E+00  0.00000000E+00  0.00000000E+00
  0.00000000E+00  0.00000000E+00  0.00000000E+00
  0.00000000E+00  0.00000000E+00  0.00000000E+00
  0.00000000E+00  0.00000000E+00  0.00000000E+00
  0.00000000E+00  0.00000000E+00  0.00000000E+00
  0.00000000E+00  0.00000000E+00  0.00000000E+00
  0.00000000E+00  0.00000000E+00  0.00000000E+00
  0.00000000E+00  0.00000000E+00  0.00000000E+00
  0.00000000E+00  0.00000000E+00  0.00000000E+00
  0.00000000E+00  0.00000000E+00  0.00000000E+00
  0.00000000E+00  0.00000000E+00  0.00000000E+00
  0.00000000E+00  0.00000000E+00  0.00000000E+00
  0.00000000E+00  0.00000000E+00  0.00000000E+00
  0.00000000E+00  0.00000000E+00  0.00000000E+00
  0.00000000E+00  0.00000000E+00  0.00000000E+00
  0.00000000E+00  0.00000000E+00  0.00000000E+00
  0.00000000E+00  0.00000000E+00  0.00000000E+00
  0.00000000E+00  0.00000000E+00  0.00000000E+00
  0.00000000E+00  0.00000000E+00  0.00000000E+00
  0.00000000E+00  0.00000000E+00  0.00000000E+00
  0.00000000E+00  0.00000000E+00  0.00000000E+00
  0.00000000E+00  0.00000000E+00  0.00000000E+00
  0.00000000E+00  0.00000000E+00  0.00000000E+00
  0.00000000E+00  0.00000000E+00  0.00000000E+00
  0.00000000E+00  0.00000000E+00  0.00000000E+00
  0.00000000E+00  0.00000000E+00  0.00000000E+00
  0.00000000E+00  0.00000000E+00  0.00000000E+00
  0.00000000E+00  0.00000000E+00  0.00000000E+00
  0.00000000E+00  0.00000000E+00  0.00000000E+00
  0.00000000E+00  0.00000000E+00  0.00000000E+00
  0.00000000E+00  0.00000000E+00  0.00000000E+00
  0.00000000E+00  0.00000000E+00  0.00000000E+00
  0.00000000E+00  0.00000000E+00  0.00000000E+00
  0.00000000E+00  0.00000000E+00  0.00000000E+00
  0.00000000E+00  0.00000000E+00  0.00000000E+00
  0.00000000E+00  0.00000000E+00  0.00000000E+00
  0.00000000E+00  0.00000000E+00  0.00000000E+00
  0.00000000E+00  0.00000000E+00  0.00000000E+00
  0.00000000E+00  0.00000000E+00  0.00000000E+00
  0.00000000E+00  0.00000000E+00  0.00000000E+00
  0.00000000E+00  0.00000000E+00  0.00000000E+00
  0.00000000E+00  0.00000000E+00  0.00000000E+00
  0.00000000E+00  0.00000000E+00  0.00000000E+00
  0.00000000E+00  0.00000000E+00  0.00000000E+00
  0.00000000E+00  0.00000000E+00  0.00000000E+00
  0.00000000E+00  0.00000000E+00  0.00000000E+00
  0.00000000E+00  0.00000000E+00  0.00000000E+00
