Primitive Cell                          
   1.00000000000000     
    22.1485182856420622   -0.1554293453877799    0.0000000000000000
   -11.2066094941639047   19.7708129762639295    0.0000000000000000
     0.0000000000000000    0.0000000000000000   20.0000000000000000
   H    C    N 
    36    60    18
Direct
  0.6263703227805735  0.3261929247963167  0.3727737835715956
  0.4456506949842023  0.3737634514799382  0.4075431221811456
  0.7397147707477814  0.4188378669150552  0.5728711419665586
  0.5145600695537098  0.2653355276567737  0.3051305621102642
  0.8558814876669487  0.4902480659191966  0.4106335749249297
  0.6354819028333125  0.5588461882345115  0.4536770209512682
  0.7014731585432159  0.4029633413016072  0.3818737850657286
  0.6101010870210430  0.2677899077105437  0.4786940513657783
  0.4685826719463364  0.2850494374361148  0.5095840479960216
  0.8032598460750080  0.5568815226408788  0.5909819123388047
  0.6836518591318494  0.2708113931814466  0.5050480137108195
  0.4046381517400732  0.9415581359761731  0.5293678239118478
  0.6281687290072853  0.0419006428752837  0.5299134736458626
  0.9746058518445011  0.5637089963074828  0.5202627989215927
  0.7769441698646204  0.1794254533666333  0.4721622252797033
  0.2563387749708070  0.8036106636130143  0.4706129609174781
  0.4477424005816175  0.0347748155803558  0.4402936138505638
  0.0729163345768811  0.6090412714141138  0.5821359277039946
  0.9592801528365058  0.3753270705435412  0.5822899147922413
  0.7368807045410364  0.3494075566848309  0.6087920801110513
  0.6612224056629756  0.1949912983347630  0.6366808486284654
  0.3708199769473950  0.7901102780693989  0.6373334512788986
  0.4048356125454475  0.6565643415304763  0.3732282853674960
  0.3497749247174227  0.7127268493839196  0.5058554287981067
  0.2930725272160615  0.5664164659709385  0.5749177327006123
  0.0585046063296701  0.4207063338061516  0.5214316873315639
  0.1758168125083230  0.4921382895957720  0.4123536588862251
  0.3299218659085597  0.5793821413510756  0.3820799069625807
  0.5853244387879499  0.9487001634776107  0.4403454772405340
  0.4236693435314081  0.7160337166214461  0.4803092138651266
  0.2953476129108950  0.6356417525127114  0.6106280468545506
  0.2309672959595872  0.4295965280825840  0.5938704026038835
  0.5861769998130342  0.6093121041995033  0.4068754153292105
  0.5157263596015653  0.7170736299008453  0.3047982184607392
  0.3968986941097370  0.4245151764433075  0.4549255619285333
  0.5650062880650424  0.6984725444745408  0.5083980605086538
  0.5022803114263823  0.4028436110942479  0.4120868107077484
  0.5390241386305306  0.3683087897712269  0.4042820045271185
  0.6133818790624730  0.4051840712024699  0.4051905940253846
  0.5086598221302552  0.2506897172835423  0.3579110692224532
  0.5018484160037673  0.1753025782577424  0.4372750774901561
  0.8208989859923221  0.5003452240448141  0.4409606293090036
  0.7206048539343541  0.5057086743785177  0.4485071091241863
  0.5357724316529442  0.4732835294531696  0.4246027723306085
  0.6471064216416025  0.4743672704504860  0.4263517642477979
  0.6079484083385012  0.5064740277823603  0.4359697670457763
  0.4827537030650788  0.2608547912874002  0.4700354604261179
  0.5066009585849116  0.2933025488739034  0.4077628339491071
  0.7919761936018261  0.5364015701742630  0.5401048534916342
  0.8322317491861213  0.5114982650178561  0.5100063429048163
  0.3968085002037611  0.8448669104833755  0.5112984617805267
  0.4306374572235114  0.9155850729635944  0.5085773635626580
  0.6022804253888694  0.0678906098065113  0.5089116502113598
  0.6361056217672285  0.1386127266381365  0.5115524451473519
  0.6024741255667152  0.1731743437706541  0.4855123092310549
  0.9441284629384512  0.5122003849877004  0.5399117948180603
  0.8720429522785267  0.4833319276547172  0.5438708081910661
  0.8306221502265458  0.4157950990188226  0.5684297097778312
  0.7702948726582051  0.2069037626888246  0.5138307920554936
  0.8171000925420486  0.3013532276410089  0.5803221661758613
  0.2626434664133228  0.7766292917974909  0.5129410139391624
  0.2152121629641925  0.6832106551486277  0.5807621720359890
  0.4986715464882607  0.9542546227527922  0.4832682863983848
  0.5343556823603421  0.0292179318919992  0.4833251670087151
  0.5333584563070559  0.1342954078131982  0.4608673822995897
  0.5005510952748438  0.0637559131409020  0.4602106493613221
  0.0546672963217674  0.5085582254857854  0.5580534389117773
  0.0966547624458300  0.5776423035910341  0.5736074013138079
  0.1690009372081107  0.6083556574594695  0.5792175569708817
  0.9779342224308252  0.4758390659057667  0.5576854090953205
  0.8633173647411638  0.3761901053112027  0.5783010197727094
  0.9357099626273637  0.4067949607239001  0.5732334547279621
  0.7069822587244516  0.2156182783064224  0.6040919933987965
  0.7045658876694816  0.1830761699257977  0.5436564293383626
  0.3253051651651546  0.7690500932112840  0.6044016849343521
  0.3281889844155117  0.8006781376319054  0.5432560986065695
  0.4306049116533899  0.8103117932290615  0.4856843839924636
  0.2019455441502913  0.5689247402966515  0.5698662414874676
  0.1608415865655317  0.5013027607216856  0.5454574368055418
  0.0887433940092990  0.4722921567037375  0.5409674606539028
  0.5309050458865272  0.8080294090537095  0.4369247621475338
  0.2112462300016062  0.4827864707427807  0.4428004098935148
  0.5325138063554675  0.9197182074995922  0.4602438186135345
  0.4996809141550287  0.8491755920729034  0.4609276740930000
  0.2415733965711411  0.4489722501571762  0.5425664060291098
  0.2007626395490334  0.4730227033418686  0.5120521242987977
  0.4183660910470550  0.5776717869607921  0.4053179396842594
  0.4927291374073164  0.6146313469943010  0.4040235240500820
  0.5295851643562060  0.5802014102394892  0.4118137238762927
  0.5224839980570266  0.7320295326533923  0.3575101813375241
  0.3117308788389579  0.4777463251245209  0.4502096342254092
  0.4962741957688763  0.5098514519680322  0.4247208383163468
  0.4242103521916150  0.4767315210835221  0.4367536302417605
  0.3849321558059060  0.5087056385265214  0.4272141212759522
  0.5502480767726894  0.7224809252873996  0.4691414672644640
  0.5252245259571993  0.6896444441955722  0.4072142952650424
  0.6507060971127601  0.3723723945178108  0.3949847885642015
  0.5071573680731518  0.1921992764040965  0.3723331503031062
  0.7659036338414182  0.4972020747049157  0.4100450026842566
  0.4802629316192579  0.2023529183505417  0.4852720598194935
  0.7365855953957237  0.5338121728358729  0.5099541513457666
  0.6377130459317684  0.2433005303941513  0.4807994504210313
  0.7587329453522003  0.3864803114459576  0.5734327749188637
  0.8265616220954612  0.2652789764490961  0.5320819655534876
  0.2061343143274925  0.7186563743695373  0.5315983325455349
  0.7621698104487322  0.2747738133127768  0.6224385151074259
  0.2698485319031079  0.7102827030563006  0.6232162223335749
  0.3956266807609339  0.7401229762373944  0.4813999837650869
  0.2738820596925180  0.5986398607779648  0.5751628752312783
  0.5244906534341354  0.7907227508908221  0.3720376292732013
  0.5531649812888659  0.7811627079020127  0.4844786187597734
  0.3807571739182762  0.6100826680029741  0.3947853134526795
  0.2659078185613666  0.4853950950486379  0.4117112018565905
  0.2966445996776272  0.4510265262346067  0.5122689830483864
 
  0.00000000E+00  0.00000000E+00  0.00000000E+00
  0.00000000E+00  0.00000000E+00  0.00000000E+00
  0.00000000E+00  0.00000000E+00  0.00000000E+00
  0.00000000E+00  0.00000000E+00  0.00000000E+00
  0.00000000E+00  0.00000000E+00  0.00000000E+00
  0.00000000E+00  0.00000000E+00  0.00000000E+00
  0.00000000E+00  0.00000000E+00  0.00000000E+00
  0.00000000E+00  0.00000000E+00  0.00000000E+00
  0.00000000E+00  0.00000000E+00  0.00000000E+00
  0.00000000E+00  0.00000000E+00  0.00000000E+00
  0.00000000E+00  0.00000000E+00  0.00000000E+00
  0.00000000E+00  0.00000000E+00  0.00000000E+00
  0.00000000E+00  0.00000000E+00  0.00000000E+00
  0.00000000E+00  0.00000000E+00  0.00000000E+00
  0.00000000E+00  0.00000000E+00  0.00000000E+00
  0.00000000E+00  0.00000000E+00  0.00000000E+00
  0.00000000E+00  0.00000000E+00  0.00000000E+00
  0.00000000E+00  0.00000000E+00  0.00000000E+00
  0.00000000E+00  0.00000000E+00  0.00000000E+00
  0.00000000E+00  0.00000000E+00  0.00000000E+00
  0.00000000E+00  0.00000000E+00  0.00000000E+00
  0.00000000E+00  0.00000000E+00  0.00000000E+00
  0.00000000E+00  0.00000000E+00  0.00000000E+00
  0.00000000E+00  0.00000000E+00  0.00000000E+00
  0.00000000E+00  0.00000000E+00  0.00000000E+00
  0.00000000E+00  0.00000000E+00  0.00000000E+00
  0.00000000E+00  0.00000000E+00  0.00000000E+00
  0.00000000E+00  0.00000000E+00  0.00000000E+00
  0.00000000E+00  0.00000000E+00  0.00000000E+00
  0.00000000E+00  0.00000000E+00  0.00000000E+00
  0.00000000E+00  0.00000000E+00  0.00000000E+00
  0.00000000E+00  0.00000000E+00  0.00000000E+00
  0.00000000E+00  0.00000000E+00  0.00000000E+00
  0.00000000E+00  0.00000000E+00  0.00000000E+00
  0.00000000E+00  0.00000000E+00  0.00000000E+00
  0.00000000E+00  0.00000000E+00  0.00000000E+00
  0.00000000E+00  0.00000000E+00  0.00000000E+00
  0.00000000E+00  0.00000000E+00  0.00000000E+00
  0.00000000E+00  0.00000000E+00  0.00000000E+00
  0.00000000E+00  0.00000000E+00  0.00000000E+00
  0.00000000E+00  0.00000000E+00  0.00000000E+00
  0.00000000E+00  0.00000000E+00  0.00000000E+00
  0.00000000E+00  0.00000000E+00  0.00000000E+00
  0.00000000E+00  0.00000000E+00  0.00000000E+00
  0.00000000E+00  0.00000000E+00  0.00000000E+00
  0.00000000E+00  0.00000000E+00  0.00000000E+00
  0.00000000E+00  0.00000000E+00  0.00000000E+00
  0.00000000E+00  0.00000000E+00  0.00000000E+00
  0.00000000E+00  0.00000000E+00  0.00000000E+00
  0.00000000E+00  0.00000000E+00  0.00000000E+00
  0.00000000E+00  0.00000000E+00  0.00000000E+00
  0.00000000E+00  0.00000000E+00  0.00000000E+00
  0.00000000E+00  0.00000000E+00  0.00000000E+00
  0.00000000E+00  0.00000000E+00  0.00000000E+00
  0.00000000E+00  0.00000000E+00  0.00000000E+00
  0.00000000E+00  0.00000000E+00  0.00000000E+00
  0.00000000E+00  0.00000000E+00  0.00000000E+00
  0.00000000E+00  0.00000000E+00  0.00000000E+00
  0.00000000E+00  0.00000000E+00  0.00000000E+00
  0.00000000E+00  0.00000000E+00  0.00000000E+00
  0.00000000E+00  0.00000000E+00  0.00000000E+00
  0.00000000E+00  0.00000000E+00  0.00000000E+00
  0.00000000E+00  0.00000000E+00  0.00000000E+00
  0.00000000E+00  0.00000000E+00  0.00000000E+00
  0.00000000E+00  0.00000000E+00  0.00000000E+00
  0.00000000E+00  0.00000000E+00  0.00000000E+00
  0.00000000E+00  0.00000000E+00  0.00000000E+00
  0.00000000E+00  0.00000000E+00  0.00000000E+00
  0.00000000E+00  0.00000000E+00  0.00000000E+00
  0.00000000E+00  0.00000000E+00  0.00000000E+00
  0.00000000E+00  0.00000000E+00  0.00000000E+00
  0.00000000E+00  0.00000000E+00  0.00000000E+00
  0.00000000E+00  0.00000000E+00  0.00000000E+00
  0.00000000E+00  0.00000000E+00  0.00000000E+00
  0.00000000E+00  0.00000000E+00  0.00000000E+00
  0.00000000E+00  0.00000000E+00  0.00000000E+00
  0.00000000E+00  0.00000000E+00  0.00000000E+00
  0.00000000E+00  0.00000000E+00  0.00000000E+00
  0.00000000E+00  0.00000000E+00  0.00000000E+00
  0.00000000E+00  0.00000000E+00  0.00000000E+00
  0.00000000E+00  0.00000000E+00  0.00000000E+00
  0.00000000E+00  0.00000000E+00  0.00000000E+00
  0.00000000E+00  0.00000000E+00  0.00000000E+00
  0.00000000E+00  0.00000000E+00  0.00000000E+00
  0.00000000E+00  0.00000000E+00  0.00000000E+00
  0.00000000E+00  0.00000000E+00  0.00000000E+00
  0.00000000E+00  0.00000000E+00  0.00000000E+00
  0.00000000E+00  0.00000000E+00  0.00000000E+00
  0.00000000E+00  0.00000000E+00  0.00000000E+00
  0.00000000E+00  0.00000000E+00  0.00000000E+00
  0.00000000E+00  0.00000000E+00  0.00000000E+00
  0.00000000E+00  0.00000000E+00  0.00000000E+00
  0.00000000E+00  0.00000000E+00  0.00000000E+00
  0.00000000E+00  0.00000000E+00  0.00000000E+00
  0.00000000E+00  0.00000000E+00  0.00000000E+00
  0.00000000E+00  0.00000000E+00  0.00000000E+00
  0.00000000E+00  0.00000000E+00  0.00000000E+00
  0.00000000E+00  0.00000000E+00  0.00000000E+00
  0.00000000E+00  0.00000000E+00  0.00000000E+00
  0.00000000E+00  0.00000000E+00  0.00000000E+00
  0.00000000E+00  0.00000000E+00  0.00000000E+00
  0.00000000E+00  0.00000000E+00  0.00000000E+00
  0.00000000E+00  0.00000000E+00  0.00000000E+00
  0.00000000E+00  0.00000000E+00  0.00000000E+00
  0.00000000E+00  0.00000000E+00  0.00000000E+00
  0.00000000E+00  0.00000000E+00  0.00000000E+00
  0.00000000E+00  0.00000000E+00  0.00000000E+00
  0.00000000E+00  0.00000000E+00  0.00000000E+00
  0.00000000E+00  0.00000000E+00  0.00000000E+00
  0.00000000E+00  0.00000000E+00  0.00000000E+00
  0.00000000E+00  0.00000000E+00  0.00000000E+00
  0.00000000E+00  0.00000000E+00  0.00000000E+00
  0.00000000E+00  0.00000000E+00  0.00000000E+00
  0.00000000E+00  0.00000000E+00  0.00000000E+00
