Primitive Cell                          
   1.00000000000000     
    14.9128177573892415    0.0314981710419600    0.0000000000000000
     0.0671924779577242   25.1983679670121425    0.0000000000000000
     1.0238702767871128    0.5840768719452522   20.0000000000000000
   C    N    H 
    54     8    32
Direct
  0.0345173394202760  0.0205146169957686  0.4943947766225065
  0.9539687582692196  0.0496801601743897  0.4948147602079587
  0.9509881967154925  0.1050137322743936  0.4871029604708355
  0.0327838497029092  0.1336985355890405  0.4770490185065768
  0.1152288159009771  0.1058770291239739  0.4839337766500407
  0.1138741958824170  0.0504884685677638  0.4913368030693093
  0.0359498612788869  0.9616816416552183  0.4945846915024532
  0.9570093887344413  0.9318329826097695  0.4916732572769931
  0.9566921919714915  0.8767502647854712  0.4846320264623145
  0.0400775896782761  0.8492125510327710  0.4780728596223227
  0.1205324101255840  0.8774990988783031  0.4878097161258026
  0.1164533971724779  0.9325158026502223  0.4951541825022687
  0.6151061244981477  0.7675444179526139  0.4944464761182346
  0.5377432994147142  0.6905310659030945  0.5142870180021291
  0.4626144138861434  0.7684349455914798  0.4988265725189578
  0.5369067878959939  0.6319930502559288  0.5217503459843869
  0.6158340003013407  0.6025610712212668  0.5088138384930758
  0.6140981648054620  0.5474028661616828  0.5117376890834180
  0.5339855491268750  0.5195515555469115  0.5285651920878323
  0.4557208293341830  0.5494939525751263  0.5431814594407882
  0.4568539058551693  0.6046509313890240  0.5392995799829308
  0.7018514240582618  0.7957491925348492  0.4899148364849211
  0.7757301536314856  0.7730633924087584  0.5210371668241933
  0.8574870745364152  0.7992968812145023  0.5192634882350262
  0.8698158668726776  0.8484512486942180  0.4845058317486632
  0.7954454250495928  0.8705515936716779  0.4528026769538798
  0.7124822657461820  0.8452049229450225  0.4563742479843427
  0.3763897190383929  0.7973230172690862  0.4963639278990044
  0.3697937563704414  0.8467459749466286  0.4626932874698326
  0.2869772141130227  0.8721176879433514  0.4587816496653545
  0.2083863718745604  0.8499329648965528  0.4899946753307631
  0.2166186192716353  0.8011576274989167  0.5256063001878886
  0.2985891509595646  0.7750095229671174  0.5279793315953967
  0.4554564246530788  0.2146079492745514  0.4942494680118088
  0.5300501944191112  0.2906609497367043  0.5143386045773539
  0.6073848893512235  0.2135409613743917  0.4986860682801719
  0.5298795755383949  0.3488144610912443  0.5219622733615310
  0.4528033461705832  0.3788468172032537  0.5088487988194004
  0.4541673053735593  0.4338725959766876  0.5116617077998953
  0.5319084444987183  0.4609361985323233  0.5286342501126171
  0.6080607822327835  0.4303095339770522  0.5435155756431200
  0.6074604062311906  0.3753263282964170  0.5397002274583045
  0.3693366507954678  0.1865858401764058  0.4897419610104379
  0.2910908055750951  0.2078091023261237  0.5207789383246393
  0.2095773600779935  0.1816841986798821  0.5187833462242324
  0.2021315992181343  0.1341644972309481  0.4839562443893399
  0.2809597520674174  0.1135002325860412  0.4524539689374407
  0.3634069788211747  0.1386793675343654  0.4561896983382923
  0.6940226689774533  0.1848283063371667  0.4960149678759223
  0.7052211664079095  0.1370443900069489  0.4621622759720978
  0.7885719041426498  0.1118620714788889  0.4581350565444424
  0.8629099295067704  0.1325588142611593  0.4893373244916219
  0.8499095664874829  0.1796701361747139  0.5250099283095508
  0.7675714521542787  0.2056694381295543  0.5275571273486435
  0.0321132996889162  0.1875271325340790  0.4605655306511878
  0.0429396366874073  0.7960145123159279  0.4621599082756731
  0.6178913223398510  0.7148259700381274  0.5073794454476328
  0.4583096578815713  0.7159392601642622  0.5133727257975096
  0.5393466995388749  0.7958859760266819  0.4866544759996287
  0.4508690360804550  0.2667265539456309  0.5071621533069575
  0.6096166333551309  0.2653065891541715  0.5135040852380968
  0.5323341693492125  0.1866728912459621  0.4864383846241438
  0.9884922021233677  0.7818308635769213  0.4402229516131015
  0.1025062255003633  0.7823695772698045  0.4426912922094814
  0.0896452609256499  0.2027304012441320  0.4387781669909145
  0.9751899709032941  0.2020775094236811  0.4411749233363054
  0.1784830052969326  0.0306198884503246  0.4955337054605806
  0.8918216397116652  0.9515271205225631  0.4956463664338244
  0.9127736787314689  0.7819707337739104  0.5461165599029840
  0.7672009149830217  0.7349689736032232  0.5477368302713259
  0.8032836111020814  0.9081296285366705  0.4246746770304100
  0.6551918354352892  0.8630821013394296  0.4324251089579718
  0.4302279037538455  0.8643804292373645  0.4386483148780584
  0.2824618001251622  0.9095547944658620  0.4303389437866585
  0.3038760925073873  0.7370545088596927  0.5550078873808744
  0.1575992812835452  0.7839182814118288  0.5521628559284011
  0.3957523411590529  0.6274742329420135  0.5497258926041013
  0.3932421575029892  0.5291396159784014  0.5583532979534880
  0.6753689711468311  0.5253729101487608  0.4987803918686069
  0.6778270904440902  0.6237752673571393  0.4949008066013931
  0.1504963125185697  0.1977586403113918  0.5455163913026411
  0.2958400551552316  0.2446303404301489  0.5475769173191836
  0.2770748740785862  0.0772271406747791  0.4243063458788257
  0.4240712370704358  0.1219411448928227  0.4323277705475732
  0.6480773351198863  0.1205611776977875  0.4380775618538237
  0.7970049720548431  0.0757625930263757  0.4296481056650023
  0.7585876928600896  0.2423300234527375  0.5546811072721027
  0.9053541600095656  0.1956662452941629  0.5515153045449637
  0.6670901719522320  0.3520365809067485  0.5502876391811995
  0.6684077822667192  0.4499842190346470  0.5587363274117507
  0.3948120404915443  0.4564936904144119  0.4983824134546779
  0.3927832912105842  0.3582640506091224  0.4948399853213346
  0.8897885394331411  0.0292815677216467  0.5022788910646199
  0.1796180475919869  0.9526223225114663  0.5023941128455434
 
  0.00000000E+00  0.00000000E+00  0.00000000E+00
  0.00000000E+00  0.00000000E+00  0.00000000E+00
  0.00000000E+00  0.00000000E+00  0.00000000E+00
  0.00000000E+00  0.00000000E+00  0.00000000E+00
  0.00000000E+00  0.00000000E+00  0.00000000E+00
  0.00000000E+00  0.00000000E+00  0.00000000E+00
  0.00000000E+00  0.00000000E+00  0.00000000E+00
  0.00000000E+00  0.00000000E+00  0.00000000E+00
  0.00000000E+00  0.00000000E+00  0.00000000E+00
  0.00000000E+00  0.00000000E+00  0.00000000E+00
  0.00000000E+00  0.00000000E+00  0.00000000E+00
  0.00000000E+00  0.00000000E+00  0.00000000E+00
  0.00000000E+00  0.00000000E+00  0.00000000E+00
  0.00000000E+00  0.00000000E+00  0.00000000E+00
  0.00000000E+00  0.00000000E+00  0.00000000E+00
  0.00000000E+00  0.00000000E+00  0.00000000E+00
  0.00000000E+00  0.00000000E+00  0.00000000E+00
  0.00000000E+00  0.00000000E+00  0.00000000E+00
  0.00000000E+00  0.00000000E+00  0.00000000E+00
  0.00000000E+00  0.00000000E+00  0.00000000E+00
  0.00000000E+00  0.00000000E+00  0.00000000E+00
  0.00000000E+00  0.00000000E+00  0.00000000E+00
  0.00000000E+00  0.00000000E+00  0.00000000E+00
  0.00000000E+00  0.00000000E+00  0.00000000E+00
  0.00000000E+00  0.00000000E+00  0.00000000E+00
  0.00000000E+00  0.00000000E+00  0.00000000E+00
  0.00000000E+00  0.00000000E+00  0.00000000E+00
  0.00000000E+00  0.00000000E+00  0.00000000E+00
  0.00000000E+00  0.00000000E+00  0.00000000E+00
  0.00000000E+00  0.00000000E+00  0.00000000E+00
  0.00000000E+00  0.00000000E+00  0.00000000E+00
  0.00000000E+00  0.00000000E+00  0.00000000E+00
  0.00000000E+00  0.00000000E+00  0.00000000E+00
  0.00000000E+00  0.00000000E+00  0.00000000E+00
  0.00000000E+00  0.00000000E+00  0.00000000E+00
  0.00000000E+00  0.00000000E+00  0.00000000E+00
  0.00000000E+00  0.00000000E+00  0.00000000E+00
  0.00000000E+00  0.00000000E+00  0.00000000E+00
  0.00000000E+00  0.00000000E+00  0.00000000E+00
  0.00000000E+00  0.00000000E+00  0.00000000E+00
  0.00000000E+00  0.00000000E+00  0.00000000E+00
  0.00000000E+00  0.00000000E+00  0.00000000E+00
  0.00000000E+00  0.00000000E+00  0.00000000E+00
  0.00000000E+00  0.00000000E+00  0.00000000E+00
  0.00000000E+00  0.00000000E+00  0.00000000E+00
  0.00000000E+00  0.00000000E+00  0.00000000E+00
  0.00000000E+00  0.00000000E+00  0.00000000E+00
  0.00000000E+00  0.00000000E+00  0.00000000E+00
  0.00000000E+00  0.00000000E+00  0.00000000E+00
  0.00000000E+00  0.00000000E+00  0.00000000E+00
  0.00000000E+00  0.00000000E+00  0.00000000E+00
  0.00000000E+00  0.00000000E+00  0.00000000E+00
  0.00000000E+00  0.00000000E+00  0.00000000E+00
  0.00000000E+00  0.00000000E+00  0.00000000E+00
  0.00000000E+00  0.00000000E+00  0.00000000E+00
  0.00000000E+00  0.00000000E+00  0.00000000E+00
  0.00000000E+00  0.00000000E+00  0.00000000E+00
  0.00000000E+00  0.00000000E+00  0.00000000E+00
  0.00000000E+00  0.00000000E+00  0.00000000E+00
  0.00000000E+00  0.00000000E+00  0.00000000E+00
  0.00000000E+00  0.00000000E+00  0.00000000E+00
  0.00000000E+00  0.00000000E+00  0.00000000E+00
  0.00000000E+00  0.00000000E+00  0.00000000E+00
  0.00000000E+00  0.00000000E+00  0.00000000E+00
  0.00000000E+00  0.00000000E+00  0.00000000E+00
  0.00000000E+00  0.00000000E+00  0.00000000E+00
  0.00000000E+00  0.00000000E+00  0.00000000E+00
  0.00000000E+00  0.00000000E+00  0.00000000E+00
  0.00000000E+00  0.00000000E+00  0.00000000E+00
  0.00000000E+00  0.00000000E+00  0.00000000E+00
  0.00000000E+00  0.00000000E+00  0.00000000E+00
  0.00000000E+00  0.00000000E+00  0.00000000E+00
  0.00000000E+00  0.00000000E+00  0.00000000E+00
  0.00000000E+00  0.00000000E+00  0.00000000E+00
  0.00000000E+00  0.00000000E+00  0.00000000E+00
  0.00000000E+00  0.00000000E+00  0.00000000E+00
  0.00000000E+00  0.00000000E+00  0.00000000E+00
  0.00000000E+00  0.00000000E+00  0.00000000E+00
  0.00000000E+00  0.00000000E+00  0.00000000E+00
  0.00000000E+00  0.00000000E+00  0.00000000E+00
  0.00000000E+00  0.00000000E+00  0.00000000E+00
  0.00000000E+00  0.00000000E+00  0.00000000E+00
  0.00000000E+00  0.00000000E+00  0.00000000E+00
  0.00000000E+00  0.00000000E+00  0.00000000E+00
  0.00000000E+00  0.00000000E+00  0.00000000E+00
  0.00000000E+00  0.00000000E+00  0.00000000E+00
  0.00000000E+00  0.00000000E+00  0.00000000E+00
  0.00000000E+00  0.00000000E+00  0.00000000E+00
  0.00000000E+00  0.00000000E+00  0.00000000E+00
  0.00000000E+00  0.00000000E+00  0.00000000E+00
  0.00000000E+00  0.00000000E+00  0.00000000E+00
  0.00000000E+00  0.00000000E+00  0.00000000E+00
  0.00000000E+00  0.00000000E+00  0.00000000E+00
  0.00000000E+00  0.00000000E+00  0.00000000E+00
