Primitive Cell                          
   1.00000000000000     
    32.2892742441845257   -0.0158865345300514    0.0000000000000000
   -16.1583941503492845   27.9811481130150668    0.0000000000000000
     0.0000000000000000    0.0000000000000000   20.0000000000000000
   N    O    C    H 
     5     6    72    45
Direct
  0.3582503935239458  0.6749663179897212  0.5200897158884459
  0.4991923489803440  0.0400496587826851  0.6397637598484351
  0.5818864975844846  0.5334451331010186  0.6398539750349386
  0.6912432269170878  0.3415289577412679  0.5245924113703850
  0.9928626784338164  0.4510061884738832  0.6393091834367368
  0.4568868147432141  0.0110783995201302  0.6266103035962800
  0.5792700428549651  0.5171739238327646  0.6969449065716233
  0.5157972558762154  0.0535290868648843  0.6967622035536181
  0.5950569238471033  0.5756346750813108  0.6264032431316480
  0.9793781873667058  0.4539651548868164  0.6963795060247193
  0.0218345316255295  0.4377357339707899  0.6260078436163354
  0.3076203416898622  0.6499580285882516  0.5217504656664360
  0.2817320785169954  0.6638019901713363  0.4798721218081070
  0.2319485675276383  0.6389914452776324  0.4812876356043674
  0.2065400699751905  0.6003168264220591  0.5250944863478750
  0.2327759179588327  0.5870303598377333  0.5672304690376251
  0.2825375518168372  0.6111070300409907  0.5653473022613440
  0.0521767573715408  0.5209746832038249  0.5303490536073596
  0.1536382053704628  0.5738856173763551  0.5266741999202651
  0.1286667137436979  0.5673310089469936  0.5869225658737065
  0.0789306233056024  0.5418942712186592  0.5886305531300593
  0.0771795471646612  0.5277780783717319  0.4700186993838216
  0.1269305191899832  0.5541181965785142  0.4680962673916227
  0.3838002406457832  0.7255501081919036  0.5219606097701330
  0.3832481691315692  0.6494034447485149  0.5216953867470338
  0.4232927375154532  0.7516036842772138  0.4797100757222523
  0.4480968567081831  0.8013464986147767  0.4812605076298127
  0.4348975865822240  0.8265386623780415  0.5255519599621223
  0.3956340657342139  0.8001292009210630  0.5680850202143333
  0.3701163771702554  0.7504027073844952  0.5660843301369951
  0.4222107973836344  0.6632906484543568  0.5651538036168802
  0.4462240418025232  0.6375871974016150  0.5671009294759912
  0.4327719813530493  0.5979451889014342  0.5251604519344610
  0.3940270198015696  0.5845973782024245  0.4814250828712971
  0.3692756624348448  0.6095835148849389  0.4799488909510998
  0.5095616961374176  0.9807921689954355  0.5306508641715979
  0.4611798340917730  0.8794028347935381  0.5271264392157917
  0.4797908170909508  0.9044255547456999  0.5872835431782804
  0.5118998664171599  0.5228299014473308  0.5307301144130605
  0.4591170511365803  0.5714312476554539  0.5268567128504031
  0.4654414272701928  0.5528700935170008  0.5871073375972031
  0.4908138892077858  0.5285449568389495  0.5889032069062381
  0.4911222540573092  0.9557401352526327  0.4704248965861666
  0.4677957294135169  0.9060306468288672  0.4685712876856059
  0.4790324503417480  0.5645903421482217  0.4683739478834994
  0.5040041390236709  0.9541283578677877  0.5889095045350317
  0.5052985060093249  0.5411460219181237  0.4703860649882969
  0.5349908368069052  0.0335750402794872  0.5310069551881611
  0.5325626652705751  0.0617491024153622  0.5829053418273062
  0.5392269917348500  0.4973830269908817  0.5313009548143910
  0.5657678861897182  0.0595153126324206  0.4779178395690309
  0.5343224535830799  0.4665456367647778  0.4783065694566631
  0.6658339695679985  0.2909255966788038  0.5254952186687945
  0.6659636275289174  0.3668377801363576  0.5256685369100254
  0.7418628923113673  0.3667778975711897  0.5254616556996581
  0.7671703994639998  0.3497695557341984  0.5627624385198686
  0.8168639572523588  0.3745868117489266  0.5631885925698157
  0.8434846341409710  0.4176770113776058  0.5276998150013767
  0.8176616630008553  0.4344762711795980  0.4909569556469293
  0.7679581078473632  0.4095067979846263  0.4892131636082695
  0.6236145712994485  0.2656363965092225  0.5630801091116027
  0.5987211381089850  0.2159729404173234  0.5635757974152753
  0.6150691233959833  0.1893511065426736  0.5278586772124143
  0.6575940805241061  0.2151610973021647  0.4908195925661261
  0.6823377091271468  0.2648311431141650  0.4890216176998834
  0.6233370189952154  0.3503095555212212  0.4891682623103293
  0.5983102725245644  0.3749404662396003  0.4910703520390811
  0.6149648989218264  0.4173703080068307  0.5282351795465416
  0.6579408851573447  0.4337175317539916  0.5640279925409573
  0.6828013514517863  0.4089229893097439  0.5634421383099735
  0.5885174001748865  0.1365920550864317  0.5290671744430782
  0.5591432807638697  0.1114254136989814  0.5833701929302322
  0.5887060889059512  0.4438589784311873  0.5294534703444640
  0.5698907710364765  0.4998676002929514  0.5831982885956677
  0.5929458816101487  0.4732557067805701  0.5837101771261430
  0.8962717163935991  0.4439429219472757  0.5288893313990499
  0.9993545582758969  0.4935842932667285  0.5307950159821928
  0.9711771214963321  0.4628016054685062  0.5825843412747034
  0.9214660858478183  0.4396118015955039  0.5830427793538178
  0.5910337574461693  0.1091797703342863  0.4761234917364092
  0.5587501489790085  0.4413190929447879  0.4765077164651359
  0.9236803065773529  0.4740932566903382  0.4761051607886060
  0.9733823123678746  0.4985581284700658  0.4778767137866140
  0.3010557718818845  0.6940979873277513  0.4462060512444523
  0.2122367044106781  0.6500182622886683  0.4484085080615117
  0.3024419795051685  0.6000942338873116  0.5977821286444751
  0.2136797514775992  0.5569338506920545  0.6013576759767645
  0.1487000453925660  0.5833493400458067  0.6327448066917114
  0.0607606073446689  0.5389355530339941  0.6358841650523104
  0.0573988601080515  0.5110168591036910  0.4243196686314477
  0.1456122218950426  0.5581574982057447  0.4209530204998941
  0.4786403336375997  0.8212040901242332  0.4480659432142389
  0.4341682650321772  0.7324332849511919  0.4456139901577671
  0.3393740671907537  0.7303355715875099  0.5988033999161146
  0.3846691590647708  0.8190437048879033  0.6025849947420383
  0.4333337869875749  0.6942896771110938  0.5974553676748613
  0.4763889992892629  0.6486590972680091  0.6011425675411175
  0.3829009195948316  0.5537902738008427  0.4486529228951852
  0.3389115034498005  0.5985514944728862  0.4463618988035662
  0.4760565225386415  0.8844782238358206  0.6330755236549095
  0.4492999280133319  0.5567939862365066  0.6328510173273898
  0.4935959075935301  0.5132088414376668  0.6361327692895529
  0.4939002406899675  0.9754498779614238  0.4247558014876915
  0.4529983052756066  0.8873039769848745  0.4215036892814936
  0.4751615029509040  0.5793450444446293  0.4212403548236310
  0.5193823601550278  0.9723421307889524  0.6360740864204999
  0.5700833110229198  0.0395947372640464  0.4371005903810996
  0.5221575373421814  0.5381992064826875  0.4247414403079901
  0.5100360010315654  0.4622031728402476  0.4375253984834018
  0.5655547627966371  0.1975677971496594  0.5921453212070986
  0.6101749912413581  0.2851957284169515  0.5916108360911636
  0.7150685526591047  0.2838197653884436  0.4596999568574205
  0.6720193672745935  0.1961085192869874  0.4631409826851680
  0.7475932504230443  0.3166766087483239  0.5911207718590816
  0.8352956851080648  0.3597622898848698  0.5914895101205033
  0.6096727728673343  0.3176618287922253  0.4597337988562771
  0.5648207546353703  0.3605112072715713  0.4633439950726483
  0.6726392797820964  0.4668049156148939  0.5927092789170487
  0.7157910501128129  0.4223264078717150  0.5920615863522727
  0.7489391676288477  0.4232915721528343  0.4601068666926196
  0.8367206425013194  0.4680421689835086  0.4634458114313915
  0.5562951555755333  0.1300844539062567  0.6269329507471824
  0.6145155766839139  0.4761663915642842  0.6272442903675568
  0.9028015225415729  0.4179352960561431  0.6265026792212325
  0.6130002696264683  0.1269971789036006  0.4324344787432111
  0.5546173782631101  0.4193924847866910  0.4328100857786126
  0.9058422799965697  0.4783750363009815  0.4325626918856429
  0.9933143914800269  0.5229661079865977  0.4372101920208777
 
  0.00000000E+00  0.00000000E+00  0.00000000E+00
  0.00000000E+00  0.00000000E+00  0.00000000E+00
  0.00000000E+00  0.00000000E+00  0.00000000E+00
  0.00000000E+00  0.00000000E+00  0.00000000E+00
  0.00000000E+00  0.00000000E+00  0.00000000E+00
  0.00000000E+00  0.00000000E+00  0.00000000E+00
  0.00000000E+00  0.00000000E+00  0.00000000E+00
  0.00000000E+00  0.00000000E+00  0.00000000E+00
  0.00000000E+00  0.00000000E+00  0.00000000E+00
  0.00000000E+00  0.00000000E+00  0.00000000E+00
  0.00000000E+00  0.00000000E+00  0.00000000E+00
  0.00000000E+00  0.00000000E+00  0.00000000E+00
  0.00000000E+00  0.00000000E+00  0.00000000E+00
  0.00000000E+00  0.00000000E+00  0.00000000E+00
  0.00000000E+00  0.00000000E+00  0.00000000E+00
  0.00000000E+00  0.00000000E+00  0.00000000E+00
  0.00000000E+00  0.00000000E+00  0.00000000E+00
  0.00000000E+00  0.00000000E+00  0.00000000E+00
  0.00000000E+00  0.00000000E+00  0.00000000E+00
  0.00000000E+00  0.00000000E+00  0.00000000E+00
  0.00000000E+00  0.00000000E+00  0.00000000E+00
  0.00000000E+00  0.00000000E+00  0.00000000E+00
  0.00000000E+00  0.00000000E+00  0.00000000E+00
  0.00000000E+00  0.00000000E+00  0.00000000E+00
  0.00000000E+00  0.00000000E+00  0.00000000E+00
  0.00000000E+00  0.00000000E+00  0.00000000E+00
  0.00000000E+00  0.00000000E+00  0.00000000E+00
  0.00000000E+00  0.00000000E+00  0.00000000E+00
  0.00000000E+00  0.00000000E+00  0.00000000E+00
  0.00000000E+00  0.00000000E+00  0.00000000E+00
  0.00000000E+00  0.00000000E+00  0.00000000E+00
  0.00000000E+00  0.00000000E+00  0.00000000E+00
  0.00000000E+00  0.00000000E+00  0.00000000E+00
  0.00000000E+00  0.00000000E+00  0.00000000E+00
  0.00000000E+00  0.00000000E+00  0.00000000E+00
  0.00000000E+00  0.00000000E+00  0.00000000E+00
  0.00000000E+00  0.00000000E+00  0.00000000E+00
  0.00000000E+00  0.00000000E+00  0.00000000E+00
  0.00000000E+00  0.00000000E+00  0.00000000E+00
  0.00000000E+00  0.00000000E+00  0.00000000E+00
  0.00000000E+00  0.00000000E+00  0.00000000E+00
  0.00000000E+00  0.00000000E+00  0.00000000E+00
  0.00000000E+00  0.00000000E+00  0.00000000E+00
  0.00000000E+00  0.00000000E+00  0.00000000E+00
  0.00000000E+00  0.00000000E+00  0.00000000E+00
  0.00000000E+00  0.00000000E+00  0.00000000E+00
  0.00000000E+00  0.00000000E+00  0.00000000E+00
  0.00000000E+00  0.00000000E+00  0.00000000E+00
  0.00000000E+00  0.00000000E+00  0.00000000E+00
  0.00000000E+00  0.00000000E+00  0.00000000E+00
  0.00000000E+00  0.00000000E+00  0.00000000E+00
  0.00000000E+00  0.00000000E+00  0.00000000E+00
  0.00000000E+00  0.00000000E+00  0.00000000E+00
  0.00000000E+00  0.00000000E+00  0.00000000E+00
  0.00000000E+00  0.00000000E+00  0.00000000E+00
  0.00000000E+00  0.00000000E+00  0.00000000E+00
  0.00000000E+00  0.00000000E+00  0.00000000E+00
  0.00000000E+00  0.00000000E+00  0.00000000E+00
  0.00000000E+00  0.00000000E+00  0.00000000E+00
  0.00000000E+00  0.00000000E+00  0.00000000E+00
  0.00000000E+00  0.00000000E+00  0.00000000E+00
  0.00000000E+00  0.00000000E+00  0.00000000E+00
  0.00000000E+00  0.00000000E+00  0.00000000E+00
  0.00000000E+00  0.00000000E+00  0.00000000E+00
  0.00000000E+00  0.00000000E+00  0.00000000E+00
  0.00000000E+00  0.00000000E+00  0.00000000E+00
  0.00000000E+00  0.00000000E+00  0.00000000E+00
  0.00000000E+00  0.00000000E+00  0.00000000E+00
  0.00000000E+00  0.00000000E+00  0.00000000E+00
  0.00000000E+00  0.00000000E+00  0.00000000E+00
  0.00000000E+00  0.00000000E+00  0.00000000E+00
  0.00000000E+00  0.00000000E+00  0.00000000E+00
  0.00000000E+00  0.00000000E+00  0.00000000E+00
  0.00000000E+00  0.00000000E+00  0.00000000E+00
  0.00000000E+00  0.00000000E+00  0.00000000E+00
  0.00000000E+00  0.00000000E+00  0.00000000E+00
  0.00000000E+00  0.00000000E+00  0.00000000E+00
  0.00000000E+00  0.00000000E+00  0.00000000E+00
  0.00000000E+00  0.00000000E+00  0.00000000E+00
  0.00000000E+00  0.00000000E+00  0.00000000E+00
  0.00000000E+00  0.00000000E+00  0.00000000E+00
  0.00000000E+00  0.00000000E+00  0.00000000E+00
  0.00000000E+00  0.00000000E+00  0.00000000E+00
  0.00000000E+00  0.00000000E+00  0.00000000E+00
  0.00000000E+00  0.00000000E+00  0.00000000E+00
  0.00000000E+00  0.00000000E+00  0.00000000E+00
  0.00000000E+00  0.00000000E+00  0.00000000E+00
  0.00000000E+00  0.00000000E+00  0.00000000E+00
  0.00000000E+00  0.00000000E+00  0.00000000E+00
  0.00000000E+00  0.00000000E+00  0.00000000E+00
  0.00000000E+00  0.00000000E+00  0.00000000E+00
  0.00000000E+00  0.00000000E+00  0.00000000E+00
  0.00000000E+00  0.00000000E+00  0.00000000E+00
  0.00000000E+00  0.00000000E+00  0.00000000E+00
  0.00000000E+00  0.00000000E+00  0.00000000E+00
  0.00000000E+00  0.00000000E+00  0.00000000E+00
  0.00000000E+00  0.00000000E+00  0.00000000E+00
  0.00000000E+00  0.00000000E+00  0.00000000E+00
  0.00000000E+00  0.00000000E+00  0.00000000E+00
  0.00000000E+00  0.00000000E+00  0.00000000E+00
  0.00000000E+00  0.00000000E+00  0.00000000E+00
  0.00000000E+00  0.00000000E+00  0.00000000E+00
  0.00000000E+00  0.00000000E+00  0.00000000E+00
  0.00000000E+00  0.00000000E+00  0.00000000E+00
  0.00000000E+00  0.00000000E+00  0.00000000E+00
  0.00000000E+00  0.00000000E+00  0.00000000E+00
  0.00000000E+00  0.00000000E+00  0.00000000E+00
  0.00000000E+00  0.00000000E+00  0.00000000E+00
  0.00000000E+00  0.00000000E+00  0.00000000E+00
  0.00000000E+00  0.00000000E+00  0.00000000E+00
  0.00000000E+00  0.00000000E+00  0.00000000E+00
  0.00000000E+00  0.00000000E+00  0.00000000E+00
  0.00000000E+00  0.00000000E+00  0.00000000E+00
  0.00000000E+00  0.00000000E+00  0.00000000E+00
  0.00000000E+00  0.00000000E+00  0.00000000E+00
  0.00000000E+00  0.00000000E+00  0.00000000E+00
  0.00000000E+00  0.00000000E+00  0.00000000E+00
  0.00000000E+00  0.00000000E+00  0.00000000E+00
  0.00000000E+00  0.00000000E+00  0.00000000E+00
  0.00000000E+00  0.00000000E+00  0.00000000E+00
  0.00000000E+00  0.00000000E+00  0.00000000E+00
  0.00000000E+00  0.00000000E+00  0.00000000E+00
  0.00000000E+00  0.00000000E+00  0.00000000E+00
  0.00000000E+00  0.00000000E+00  0.00000000E+00
  0.00000000E+00  0.00000000E+00  0.00000000E+00
  0.00000000E+00  0.00000000E+00  0.00000000E+00
  0.00000000E+00  0.00000000E+00  0.00000000E+00
  0.00000000E+00  0.00000000E+00  0.00000000E+00
