Primitive Cell                          
   1.00000000000000     
    25.6304501437707479    0.0133785376829161    0.0000000000000000
    -0.0032449193327455   25.6226641818321212    0.0000000000000000
     0.0000000000000000    0.0000000000000000   20.0000000000000000
   N    C    H 
     8    62    42
Direct
  0.9969980684006217  0.3810808919938538  0.4787042057503754
  0.6011323204218968  0.9948242694583840  0.4753215084528293
  0.0474622315710747  0.0514531053187355  0.5037736855909571
  0.9330813413940007  0.0438711018557214  0.5019364153850532
  0.9366316304145101  0.9293802715671191  0.5013497154650324
  0.0510200827335581  0.9368970132878545  0.5035146552862955
  0.9888638828611676  0.6001208161889906  0.4729651611803050
  0.3821051053972653  0.9861138517266284  0.4733042984480349
  0.2158635426159563  0.9799309449352052  0.4556236621415835
  0.2699607912023652  0.9821849529578159  0.4579148567599276
  0.9832196846874552  0.7663222876307643  0.4531792341299621
  0.9855288222465504  0.7122192494999169  0.4559712158741078
  0.7134426968691443  0.9984117007373285  0.4561997547737207
  0.7675263230761260  0.0011537391660568  0.4531173036234506
  0.0027075535275713  0.2149333427478766  0.4562774585017664
  0.0003774115043740  0.2690286462360234  0.4596655746880032
  0.9945485047685239  0.4353954790162646  0.4833814545689208
  0.9894930048545021  0.4623955383333680  0.4222512065554582
  0.9863370152566517  0.5163207277889370  0.4198888820057007
  0.5468803083012261  0.9923600132401447  0.4809331633967915
  0.5192677502285719  0.9871062058377547  0.4202929237927648
  0.4653496118368210  0.9838126607534576  0.4188413815791492
  0.0839481855200503  0.1314775279399427  0.5074972481393161
  0.1236049249273421  0.0954436916669223  0.5072807542206021
  0.1006965408619536  0.0443655022392235  0.5058479120962431
  0.0353331916134323  0.1037984087329775  0.5047127908748266
  0.9849329126138571  0.1256385587866689  0.5045087128041104
  0.9376877647291408  0.0971890940004059  0.5029182987024186
  0.8804451426899931  0.0342180680437778  0.5018439355429649
  0.8508226584322998  0.0828325598192592  0.5026142356969316
  0.8864760535047296  0.1220619560247371  0.5021965760252627
  0.8567376620004836  0.9844190937348785  0.5025101901023774
  0.8833820248752673  0.9363820671439811  0.5019412894415467
  0.9488041079721370  0.8770344790575493  0.5019658768716440
  0.9002054632173824  0.8492782690238911  0.5024684959340533
  0.8605180357688056  0.8852718395470376  0.5016063235170094
  0.9991640072609584  0.8551973505631807  0.5035280436219480
  0.0464198139915126  0.8835954650979190  0.5039760802743203
  0.1036178262004768  0.9465280442870778  0.5047984448193219
  0.1332539890271889  0.8979085259241515  0.5061367476794416
  0.0976140827478886  0.8586822313547700  0.5046822685328181
  0.1272916352988673  0.9963182937682262  0.5062308219438378
  0.1853209828847113  0.9989231634046476  0.5089231398911096
  0.2954606312720642  0.0042061794295876  0.5135435733252081
  0.2650831254082604  0.0234780813654538  0.5666077297849910
  0.2108420992876461  0.0205216059905950  0.5645718645636393
  0.0020996128569877  0.7971757454406472  0.5062340553736817
  0.0074312770961598  0.6870446612519672  0.5119218052618137
  0.0267203791188209  0.7177448812846734  0.5646685849411242
  0.0237160735194024  0.7719735615888794  0.5621332158341730
  0.7987203102023841  0.9815322394043875  0.5054139189015885
  0.7738400755114370  0.9586395507402514  0.5607231933546188
  0.7196649484196769  0.9550287318760979  0.5633980471112920
  0.6886550631873334  0.9751030006052304  0.5114555613032579
  0.9819330048194885  0.1836562465438334  0.5077568857027401
  0.9583437283560912  0.2084861336217543  0.5626273122972449
  0.9764352821896196  0.2937696281900557  0.5145182959517385
  0.9551825061860200  0.2627024648494469  0.5656054955436218
  0.0108520137563630  0.6302351597435987  0.5160832079390048
  0.6318181668632405  0.9711668535977509  0.5161618996361312
  0.9728393635563606  0.3506481719230337  0.5193254352481702
  0.3522717843018768  0.0078438748310390  0.5169741282006655
  0.9912211090040017  0.5457793005361111  0.4789405862484344
  0.9976238523624161  0.5188648192732899  0.5397881505675173
  0.9993083844187822  0.4644602282212844  0.5437664604939769
  0.0082380983742851  0.4393594061450585  0.6111338350412012
  0.4364787642096033  0.9887151994512706  0.4783727710609327
  0.4639983470205138  0.9953822103781746  0.5387286294550080
  0.5184240778008800  0.9972642267261378  0.5418139903816623
  0.5440497070578374  0.0065667656983948  0.6087820480631549
  0.0163626670300303  0.2932165781217861  0.4197683605648095
  0.0203822752218343  0.1960386608490481  0.4129485304839591
  0.7864926898881279  0.0183415955764232  0.4095288033460633
  0.6892995411644520  0.0135999321440679  0.4157386405413135
  0.9670260611827146  0.7855804910432127  0.4091591711880582
  0.9710808869278083  0.6883111130003954  0.4148584677804337
  0.2936130411189382  0.9675680007981384  0.4166396342312169
  0.1963186169192142  0.9635477862857584  0.4119414331434044
  0.9872551113143402  0.4392203470038467  0.3765965310284543
  0.9813134711568097  0.5368932267478854  0.3725961843795247
  0.5420032601242539  0.9848322658150508  0.3742906182383550
  0.4443133718562251  0.9786118275623608  0.3719217610493644
  0.9364689223455542  0.2814310214089986  0.6084329703014788
  0.9424839511833198  0.1847574139058992  0.6030745303223384
  0.0876514456569524  0.1735909010713286  0.5094816075112760
  0.1651872265253758  0.1031444986826244  0.5081626518665843
  0.0206975380977497  0.0219835981586627  0.5027006957351858
  0.9633697900314147  0.9588940795670524  0.5017179981746125
  0.8789321515414343  0.1637250900417300  0.5014151183971762
  0.8086440795821801  0.0863893485763896  0.5033456116101007
  0.7975075312175477  0.9437695667845745  0.6018666541172379
  0.7009213786524526  0.9369563783033712  0.6066588880496226
  0.8189536597223892  0.8774977711168788  0.5007794325765005
  0.8965631685923441  0.8071343214182178  0.5033307257102209
  0.1754187621741394  0.8943731867350238  0.5079659314213743
  0.1051118969226792  0.8170034448613634  0.5040696460577010
  0.0380892715731207  0.7954052372506339  0.6037706567023449
  0.0437741063650279  0.6986952704415614  0.6084013304379638
  0.1876843470263125  0.0348065362337522  0.6065257677299911
  0.2844056189603776  0.0404600190884139  0.6101694885302820
  0.0341644532854630  0.6148693763223960  0.5583333126634500
  0.6170626908703554  0.9456273711848695  0.5564552422124578
  0.9470249325128890  0.3655937005746779  0.5592078858981111
  0.3678777512436255  0.0311387725942964  0.5591014443487197
  0.0006632332230794  0.5410905506186054  0.5862561709412830
  0.0293390792780528  0.4662818631325223  0.6441995447209692
  0.9714359871436855  0.4292759455667863  0.6363788678951252
  0.0311707575794102  0.4032600208883821  0.6070288597740898
  0.4422437446654683  0.9984560072292794  0.5855603180722184
  0.5174203386290372  0.0279662734776451  0.6419665549822611
  0.5542581076171942  0.9699024130411686  0.6343278654844084
  0.5801556074105889  0.0293822676275610  0.6040500411910585
 
  0.00000000E+00  0.00000000E+00  0.00000000E+00
  0.00000000E+00  0.00000000E+00  0.00000000E+00
  0.00000000E+00  0.00000000E+00  0.00000000E+00
  0.00000000E+00  0.00000000E+00  0.00000000E+00
  0.00000000E+00  0.00000000E+00  0.00000000E+00
  0.00000000E+00  0.00000000E+00  0.00000000E+00
  0.00000000E+00  0.00000000E+00  0.00000000E+00
  0.00000000E+00  0.00000000E+00  0.00000000E+00
  0.00000000E+00  0.00000000E+00  0.00000000E+00
  0.00000000E+00  0.00000000E+00  0.00000000E+00
  0.00000000E+00  0.00000000E+00  0.00000000E+00
  0.00000000E+00  0.00000000E+00  0.00000000E+00
  0.00000000E+00  0.00000000E+00  0.00000000E+00
  0.00000000E+00  0.00000000E+00  0.00000000E+00
  0.00000000E+00  0.00000000E+00  0.00000000E+00
  0.00000000E+00  0.00000000E+00  0.00000000E+00
  0.00000000E+00  0.00000000E+00  0.00000000E+00
  0.00000000E+00  0.00000000E+00  0.00000000E+00
  0.00000000E+00  0.00000000E+00  0.00000000E+00
  0.00000000E+00  0.00000000E+00  0.00000000E+00
  0.00000000E+00  0.00000000E+00  0.00000000E+00
  0.00000000E+00  0.00000000E+00  0.00000000E+00
  0.00000000E+00  0.00000000E+00  0.00000000E+00
  0.00000000E+00  0.00000000E+00  0.00000000E+00
  0.00000000E+00  0.00000000E+00  0.00000000E+00
  0.00000000E+00  0.00000000E+00  0.00000000E+00
  0.00000000E+00  0.00000000E+00  0.00000000E+00
  0.00000000E+00  0.00000000E+00  0.00000000E+00
  0.00000000E+00  0.00000000E+00  0.00000000E+00
  0.00000000E+00  0.00000000E+00  0.00000000E+00
  0.00000000E+00  0.00000000E+00  0.00000000E+00
  0.00000000E+00  0.00000000E+00  0.00000000E+00
  0.00000000E+00  0.00000000E+00  0.00000000E+00
  0.00000000E+00  0.00000000E+00  0.00000000E+00
  0.00000000E+00  0.00000000E+00  0.00000000E+00
  0.00000000E+00  0.00000000E+00  0.00000000E+00
  0.00000000E+00  0.00000000E+00  0.00000000E+00
  0.00000000E+00  0.00000000E+00  0.00000000E+00
  0.00000000E+00  0.00000000E+00  0.00000000E+00
  0.00000000E+00  0.00000000E+00  0.00000000E+00
  0.00000000E+00  0.00000000E+00  0.00000000E+00
  0.00000000E+00  0.00000000E+00  0.00000000E+00
  0.00000000E+00  0.00000000E+00  0.00000000E+00
  0.00000000E+00  0.00000000E+00  0.00000000E+00
  0.00000000E+00  0.00000000E+00  0.00000000E+00
  0.00000000E+00  0.00000000E+00  0.00000000E+00
  0.00000000E+00  0.00000000E+00  0.00000000E+00
  0.00000000E+00  0.00000000E+00  0.00000000E+00
  0.00000000E+00  0.00000000E+00  0.00000000E+00
  0.00000000E+00  0.00000000E+00  0.00000000E+00
  0.00000000E+00  0.00000000E+00  0.00000000E+00
  0.00000000E+00  0.00000000E+00  0.00000000E+00
  0.00000000E+00  0.00000000E+00  0.00000000E+00
  0.00000000E+00  0.00000000E+00  0.00000000E+00
  0.00000000E+00  0.00000000E+00  0.00000000E+00
  0.00000000E+00  0.00000000E+00  0.00000000E+00
  0.00000000E+00  0.00000000E+00  0.00000000E+00
  0.00000000E+00  0.00000000E+00  0.00000000E+00
  0.00000000E+00  0.00000000E+00  0.00000000E+00
  0.00000000E+00  0.00000000E+00  0.00000000E+00
  0.00000000E+00  0.00000000E+00  0.00000000E+00
  0.00000000E+00  0.00000000E+00  0.00000000E+00
  0.00000000E+00  0.00000000E+00  0.00000000E+00
  0.00000000E+00  0.00000000E+00  0.00000000E+00
  0.00000000E+00  0.00000000E+00  0.00000000E+00
  0.00000000E+00  0.00000000E+00  0.00000000E+00
  0.00000000E+00  0.00000000E+00  0.00000000E+00
  0.00000000E+00  0.00000000E+00  0.00000000E+00
  0.00000000E+00  0.00000000E+00  0.00000000E+00
  0.00000000E+00  0.00000000E+00  0.00000000E+00
  0.00000000E+00  0.00000000E+00  0.00000000E+00
  0.00000000E+00  0.00000000E+00  0.00000000E+00
  0.00000000E+00  0.00000000E+00  0.00000000E+00
  0.00000000E+00  0.00000000E+00  0.00000000E+00
  0.00000000E+00  0.00000000E+00  0.00000000E+00
  0.00000000E+00  0.00000000E+00  0.00000000E+00
  0.00000000E+00  0.00000000E+00  0.00000000E+00
  0.00000000E+00  0.00000000E+00  0.00000000E+00
  0.00000000E+00  0.00000000E+00  0.00000000E+00
  0.00000000E+00  0.00000000E+00  0.00000000E+00
  0.00000000E+00  0.00000000E+00  0.00000000E+00
  0.00000000E+00  0.00000000E+00  0.00000000E+00
  0.00000000E+00  0.00000000E+00  0.00000000E+00
  0.00000000E+00  0.00000000E+00  0.00000000E+00
  0.00000000E+00  0.00000000E+00  0.00000000E+00
  0.00000000E+00  0.00000000E+00  0.00000000E+00
  0.00000000E+00  0.00000000E+00  0.00000000E+00
  0.00000000E+00  0.00000000E+00  0.00000000E+00
  0.00000000E+00  0.00000000E+00  0.00000000E+00
  0.00000000E+00  0.00000000E+00  0.00000000E+00
  0.00000000E+00  0.00000000E+00  0.00000000E+00
  0.00000000E+00  0.00000000E+00  0.00000000E+00
  0.00000000E+00  0.00000000E+00  0.00000000E+00
  0.00000000E+00  0.00000000E+00  0.00000000E+00
  0.00000000E+00  0.00000000E+00  0.00000000E+00
  0.00000000E+00  0.00000000E+00  0.00000000E+00
  0.00000000E+00  0.00000000E+00  0.00000000E+00
  0.00000000E+00  0.00000000E+00  0.00000000E+00
  0.00000000E+00  0.00000000E+00  0.00000000E+00
  0.00000000E+00  0.00000000E+00  0.00000000E+00
  0.00000000E+00  0.00000000E+00  0.00000000E+00
  0.00000000E+00  0.00000000E+00  0.00000000E+00
  0.00000000E+00  0.00000000E+00  0.00000000E+00
  0.00000000E+00  0.00000000E+00  0.00000000E+00
  0.00000000E+00  0.00000000E+00  0.00000000E+00
  0.00000000E+00  0.00000000E+00  0.00000000E+00
  0.00000000E+00  0.00000000E+00  0.00000000E+00
  0.00000000E+00  0.00000000E+00  0.00000000E+00
  0.00000000E+00  0.00000000E+00  0.00000000E+00
  0.00000000E+00  0.00000000E+00  0.00000000E+00
  0.00000000E+00  0.00000000E+00  0.00000000E+00
  0.00000000E+00  0.00000000E+00  0.00000000E+00
