Primitive Cell                          
   1.00000000000000     
    22.7534078354462395    0.0674602589608475    0.0000000000000000
   -11.3183618051580446   19.8351667064809618    0.0000000000000000
     0.0000000000000000    0.0000000000000000   20.0000000000000000
   C    H    N 
    60    42    24
Direct
  0.5032009279834497  0.5927563813994823  0.5045893277827176
  0.4663668302974529  0.6267618009985085  0.5099590305833601
  0.3949563351653325  0.5904271850331497  0.5030478071824689
  0.5279358254691857  0.7473244762384184  0.4671306836757552
  0.4961529097216442  0.7006521328827375  0.5206039028035931
  0.2908029046420353  0.4910239428998295  0.4663565150802000
  0.2687242861330574  0.4843912780007287  0.4002870817005828
  0.4722041686784095  0.5232248092206646  0.4908897653355666
  0.3640214965841935  0.5219684084593581  0.4826551447893053
  0.4023208917714598  0.4901760192846112  0.4766626579846047
  0.1307054142164574  0.5224074778874410  0.4394627019115376
  0.4940178665658621  0.8175557537426386  0.5268461823187351
  0.5250747121820893  0.8070515078156077  0.4712138768232919
  0.2071706834321887  0.4825776038218166  0.3879628537881672
  0.1748781226067422  0.4914439363858065  0.4449702807313045
  0.4644423123898207  0.8626165908451071  0.5210993226096292
  0.6100834291772941  0.1421263410972244  0.4407749988090259
  0.5745256018219749  0.0724565424661066  0.4489611199751309
  0.3963213198278552  0.9275580377386916  0.4738992246615297
  0.3583920589178220  0.8617867928725929  0.4981921762664214
  0.3929737419036528  0.8321241262639489  0.5320091333400754
  0.0607947215466282  0.4876113592950801  0.4467639726122741
  0.1659640457279536  0.5938651454696142  0.4359947895399117
  0.1710018107213074  0.7021116523286111  0.4534872362442357
  0.2860238674996083  0.8175403988888306  0.4822035755186036
  0.8022616023575466  0.2993143210938456  0.4557073039881843
  0.7815610265291753  0.2779473377807093  0.3901934038436963
  0.7214001792215257  0.2171007297339216  0.3804930022145925
  0.6852261006606923  0.1843456235127761  0.4396182055294915
  0.5045417339902869  0.0370864532917352  0.4617209066508536
  0.4673837810307404  0.9642586300141858  0.4765248850958130
  0.4998497588903561  0.9277951325915268  0.4953384198469593
  0.9486315609773470  0.4817054413081294  0.4616263693623637
  0.9121205052937000  0.4115103426434388  0.4509125944816077
  0.8455055260527828  0.3720915724297313  0.4715966459618386
  0.0223618297344998  0.5206035757605818  0.4502071298976205
  0.1282824573653727  0.6280397855296727  0.4427886704304669
  0.0583263370821783  0.5915811953640286  0.4488429089691977
  0.5666245365974731  0.4097518991437852  0.5527117448602183
  0.5018173133588633  0.3754051240766714  0.5202666700283913
  0.4734119132753634  0.4139818669112216  0.4979470237226025
  0.5755509743142753  0.1797271828761637  0.4439024894671633
  0.8114883007326554  0.4024713327747804  0.5040455537829303
  0.8438522026699005  0.4740911930118088  0.5053024676591065
  0.9116489939329782  0.5117378216692359  0.4859697154911018
  0.2027553695171562  0.7476166238122417  0.4014886143441529
  0.2614836613743350  0.8088076593693572  0.4148507265420349
  0.4754998597967628  0.1889006199376553  0.4720478022859140
  0.4582479653761098  0.2203596891473580  0.4220956328561130
  0.4552468657942228  0.2787061527818082  0.4375052147416483
  0.4741223933690861  0.3033257604941255  0.5045361779125486
  0.6827313226644449  0.5058171946574461  0.5363524024574957
  0.7223428917478998  0.5377207182766384  0.4799972982327390
  0.7840494500316737  0.5390178788530093  0.4716001485292196
  0.8000976598642353  0.5037503725403951  0.5212012184516226
  0.5085705576549415  0.4849513596875923  0.4983818859903408
  0.5786823167548576  0.5156812579206900  0.5107299684381132
  0.6088309064335107  0.4798281214330657  0.5359841990732477
  0.4715274830128138  0.0754528197109678  0.4663826083053380
  0.5051026074269913  0.1447662891593495  0.4571985008963466
  0.5571700222773828  0.6211355486337311  0.5154831452405944
  0.5660582673318402  0.7597577985394253  0.3716947757468176
  0.5415483139016359  0.6823790046994702  0.4072990204754134
  0.2095655966620669  0.4827541194430367  0.2850415537140236
  0.3016795502486858  0.4873436663866215  0.3591752106263968
  0.3757203073139195  0.4372069292553817  0.4625004845552212
  0.3783301727790800  0.6656679565937864  0.5350383339981946
  0.3102977416103201  0.7605881763019440  0.5801243672138625
  0.2630552341429748  0.6073625682336825  0.4405606099179593
  0.0364308298151457  0.4332668911318791  0.4536413548028477
  0.5395291103919462  0.8412344992701506  0.4285254076785421
  0.1445805386233303  0.4905508603738014  0.3199987651257032
  0.7151025946851419  0.2213110233571243  0.2781360118107372
  0.6458084513068911  0.1566599626522915  0.3164848775927993
  0.3100949477823249  0.5892763154532474  0.5333593711130291
  0.5547179574246570  0.9511560330218813  0.4921276564541444
  0.3877003117408293  0.7625064848589531  0.5978042971382322
  0.6033185137314661  0.0458944119354641  0.4476709294293428
  0.8078014867017984  0.3112057972810618  0.3481490793391586
  0.9364519041699566  0.3863305463825952  0.4264791615345089
  0.2590424588143279  0.6788547502768907  0.4401510014304577
  0.5553678330336709  0.3268360005764990  0.6012970022497015
  0.4203864734510532  0.3868153735113324  0.4832644923524896
  0.6595340766687272  0.2747127010793662  0.4494227062900933
  0.3689573943833935  0.9517732263120493  0.4539871577407624
  0.7326915448737381  0.3873293490730703  0.5615456520980402
  0.9367596202693349  0.5661229270480135  0.4933580694918973
  0.2815072770881599  0.8392342185283752  0.3173281838831272
  0.3444625099640675  0.8884013809181042  0.3727915733596774
  0.1857323637884463  0.7332128208417643  0.3499736906788158
  0.4394595748336840  0.2984582869488150  0.3415433491940760
  0.4552410652034666  0.3613879990871567  0.3979807490662779
  0.4528681464185027  0.2030444563728295  0.3703719589858068
  0.8065214874910538  0.5818934852622206  0.3781087607852456
  0.8594293244216331  0.5533758036950758  0.4065523209042752
  0.7018575365500581  0.5547440814228253  0.4397872473697007
  0.6110638229370053  0.5695534421895943  0.5021445149629287
  0.6349308721420641  0.4045915853603859  0.6136461664190165
  0.4186926096140837  0.0514341675029115  0.4816117369662507
  0.5853335218858788  0.2733195345228552  0.4519045748920618
  0.0317538230098009  0.6200235503515401  0.4549089109370286
  0.7376641728789437  0.3173670163148117  0.5446835396468828
  0.3550735827087479  0.6207293563619416  0.5107952501589565
  0.5551444059429969  0.7315492520431022  0.4137085478326341
  0.4783786127677558  0.7192382898221936  0.5771497134165742
  0.3587340315188570  0.7738540362905795  0.5672219135939756
  0.2353316217333514  0.6294503266760358  0.4275598391433775
  0.1804205421245584  0.4767506128710153  0.3255378796525292
  0.6956122416843442  0.1914585452950703  0.3188224941447544
  0.4781695334711813  0.7776193761252870  0.5817015606696145
  0.1930859073299871  0.4856298410028117  0.5072841652595059
  0.2501432684979790  0.4838957610286627  0.5189437582050758
  0.2462041325474331  0.7759974264785328  0.5308065680405889
  0.1890678136963686  0.7190738944890427  0.5181711287590218
  0.5882196901844878  0.3767123833002444  0.5922543986395041
  0.6100137091468980  0.2491369247018582  0.4359111540261509
  0.7459890238425686  0.3628753732113026  0.5273076559803513
  0.2948676567431292  0.8546316060106847  0.3651959970873691
  0.4395793198298676  0.3118873921042038  0.3898747342055842
  0.8249278429027598  0.5679526478408832  0.4173859609186579
  0.4798057553861526  0.2639728835389263  0.5515603442110617
  0.4802353237997394  0.2071959468363147  0.5369762313336395
  0.7142768229005156  0.2015760398705524  0.5000642505763366
  0.7733564893039926  0.2579774981965244  0.5088171657496403
  0.7652635946681485  0.4841559390296339  0.5783886089401022
  0.7082634850354026  0.4863556152362989  0.5876639978487290
 
  0.00000000E+00  0.00000000E+00  0.00000000E+00
  0.00000000E+00  0.00000000E+00  0.00000000E+00
  0.00000000E+00  0.00000000E+00  0.00000000E+00
  0.00000000E+00  0.00000000E+00  0.00000000E+00
  0.00000000E+00  0.00000000E+00  0.00000000E+00
  0.00000000E+00  0.00000000E+00  0.00000000E+00
  0.00000000E+00  0.00000000E+00  0.00000000E+00
  0.00000000E+00  0.00000000E+00  0.00000000E+00
  0.00000000E+00  0.00000000E+00  0.00000000E+00
  0.00000000E+00  0.00000000E+00  0.00000000E+00
  0.00000000E+00  0.00000000E+00  0.00000000E+00
  0.00000000E+00  0.00000000E+00  0.00000000E+00
  0.00000000E+00  0.00000000E+00  0.00000000E+00
  0.00000000E+00  0.00000000E+00  0.00000000E+00
  0.00000000E+00  0.00000000E+00  0.00000000E+00
  0.00000000E+00  0.00000000E+00  0.00000000E+00
  0.00000000E+00  0.00000000E+00  0.00000000E+00
  0.00000000E+00  0.00000000E+00  0.00000000E+00
  0.00000000E+00  0.00000000E+00  0.00000000E+00
  0.00000000E+00  0.00000000E+00  0.00000000E+00
  0.00000000E+00  0.00000000E+00  0.00000000E+00
  0.00000000E+00  0.00000000E+00  0.00000000E+00
  0.00000000E+00  0.00000000E+00  0.00000000E+00
  0.00000000E+00  0.00000000E+00  0.00000000E+00
  0.00000000E+00  0.00000000E+00  0.00000000E+00
  0.00000000E+00  0.00000000E+00  0.00000000E+00
  0.00000000E+00  0.00000000E+00  0.00000000E+00
  0.00000000E+00  0.00000000E+00  0.00000000E+00
  0.00000000E+00  0.00000000E+00  0.00000000E+00
  0.00000000E+00  0.00000000E+00  0.00000000E+00
  0.00000000E+00  0.00000000E+00  0.00000000E+00
  0.00000000E+00  0.00000000E+00  0.00000000E+00
  0.00000000E+00  0.00000000E+00  0.00000000E+00
  0.00000000E+00  0.00000000E+00  0.00000000E+00
  0.00000000E+00  0.00000000E+00  0.00000000E+00
  0.00000000E+00  0.00000000E+00  0.00000000E+00
  0.00000000E+00  0.00000000E+00  0.00000000E+00
  0.00000000E+00  0.00000000E+00  0.00000000E+00
  0.00000000E+00  0.00000000E+00  0.00000000E+00
  0.00000000E+00  0.00000000E+00  0.00000000E+00
  0.00000000E+00  0.00000000E+00  0.00000000E+00
  0.00000000E+00  0.00000000E+00  0.00000000E+00
  0.00000000E+00  0.00000000E+00  0.00000000E+00
  0.00000000E+00  0.00000000E+00  0.00000000E+00
  0.00000000E+00  0.00000000E+00  0.00000000E+00
  0.00000000E+00  0.00000000E+00  0.00000000E+00
  0.00000000E+00  0.00000000E+00  0.00000000E+00
  0.00000000E+00  0.00000000E+00  0.00000000E+00
  0.00000000E+00  0.00000000E+00  0.00000000E+00
  0.00000000E+00  0.00000000E+00  0.00000000E+00
  0.00000000E+00  0.00000000E+00  0.00000000E+00
  0.00000000E+00  0.00000000E+00  0.00000000E+00
  0.00000000E+00  0.00000000E+00  0.00000000E+00
  0.00000000E+00  0.00000000E+00  0.00000000E+00
  0.00000000E+00  0.00000000E+00  0.00000000E+00
  0.00000000E+00  0.00000000E+00  0.00000000E+00
  0.00000000E+00  0.00000000E+00  0.00000000E+00
  0.00000000E+00  0.00000000E+00  0.00000000E+00
  0.00000000E+00  0.00000000E+00  0.00000000E+00
  0.00000000E+00  0.00000000E+00  0.00000000E+00
  0.00000000E+00  0.00000000E+00  0.00000000E+00
  0.00000000E+00  0.00000000E+00  0.00000000E+00
  0.00000000E+00  0.00000000E+00  0.00000000E+00
  0.00000000E+00  0.00000000E+00  0.00000000E+00
  0.00000000E+00  0.00000000E+00  0.00000000E+00
  0.00000000E+00  0.00000000E+00  0.00000000E+00
  0.00000000E+00  0.00000000E+00  0.00000000E+00
  0.00000000E+00  0.00000000E+00  0.00000000E+00
  0.00000000E+00  0.00000000E+00  0.00000000E+00
  0.00000000E+00  0.00000000E+00  0.00000000E+00
  0.00000000E+00  0.00000000E+00  0.00000000E+00
  0.00000000E+00  0.00000000E+00  0.00000000E+00
  0.00000000E+00  0.00000000E+00  0.00000000E+00
  0.00000000E+00  0.00000000E+00  0.00000000E+00
  0.00000000E+00  0.00000000E+00  0.00000000E+00
  0.00000000E+00  0.00000000E+00  0.00000000E+00
  0.00000000E+00  0.00000000E+00  0.00000000E+00
  0.00000000E+00  0.00000000E+00  0.00000000E+00
  0.00000000E+00  0.00000000E+00  0.00000000E+00
  0.00000000E+00  0.00000000E+00  0.00000000E+00
  0.00000000E+00  0.00000000E+00  0.00000000E+00
  0.00000000E+00  0.00000000E+00  0.00000000E+00
  0.00000000E+00  0.00000000E+00  0.00000000E+00
  0.00000000E+00  0.00000000E+00  0.00000000E+00
  0.00000000E+00  0.00000000E+00  0.00000000E+00
  0.00000000E+00  0.00000000E+00  0.00000000E+00
  0.00000000E+00  0.00000000E+00  0.00000000E+00
  0.00000000E+00  0.00000000E+00  0.00000000E+00
  0.00000000E+00  0.00000000E+00  0.00000000E+00
  0.00000000E+00  0.00000000E+00  0.00000000E+00
  0.00000000E+00  0.00000000E+00  0.00000000E+00
  0.00000000E+00  0.00000000E+00  0.00000000E+00
  0.00000000E+00  0.00000000E+00  0.00000000E+00
  0.00000000E+00  0.00000000E+00  0.00000000E+00
  0.00000000E+00  0.00000000E+00  0.00000000E+00
  0.00000000E+00  0.00000000E+00  0.00000000E+00
  0.00000000E+00  0.00000000E+00  0.00000000E+00
  0.00000000E+00  0.00000000E+00  0.00000000E+00
  0.00000000E+00  0.00000000E+00  0.00000000E+00
  0.00000000E+00  0.00000000E+00  0.00000000E+00
  0.00000000E+00  0.00000000E+00  0.00000000E+00
  0.00000000E+00  0.00000000E+00  0.00000000E+00
  0.00000000E+00  0.00000000E+00  0.00000000E+00
  0.00000000E+00  0.00000000E+00  0.00000000E+00
  0.00000000E+00  0.00000000E+00  0.00000000E+00
  0.00000000E+00  0.00000000E+00  0.00000000E+00
  0.00000000E+00  0.00000000E+00  0.00000000E+00
  0.00000000E+00  0.00000000E+00  0.00000000E+00
  0.00000000E+00  0.00000000E+00  0.00000000E+00
  0.00000000E+00  0.00000000E+00  0.00000000E+00
  0.00000000E+00  0.00000000E+00  0.00000000E+00
  0.00000000E+00  0.00000000E+00  0.00000000E+00
  0.00000000E+00  0.00000000E+00  0.00000000E+00
  0.00000000E+00  0.00000000E+00  0.00000000E+00
  0.00000000E+00  0.00000000E+00  0.00000000E+00
  0.00000000E+00  0.00000000E+00  0.00000000E+00
  0.00000000E+00  0.00000000E+00  0.00000000E+00
  0.00000000E+00  0.00000000E+00  0.00000000E+00
  0.00000000E+00  0.00000000E+00  0.00000000E+00
  0.00000000E+00  0.00000000E+00  0.00000000E+00
  0.00000000E+00  0.00000000E+00  0.00000000E+00
  0.00000000E+00  0.00000000E+00  0.00000000E+00
  0.00000000E+00  0.00000000E+00  0.00000000E+00
  0.00000000E+00  0.00000000E+00  0.00000000E+00
  0.00000000E+00  0.00000000E+00  0.00000000E+00
  0.00000000E+00  0.00000000E+00  0.00000000E+00
