Primitive Cell                          
   1.00000000000000     
    13.1152697101086719   -0.2488440761384814    0.0000000000000000
    -0.2415846092907076   17.1700380346877814    0.0000000000000000
     1.7669202556303882    1.3600093770024997   19.9999999999999893
   N    C    H 
    12    37    20
Direct
  0.5320427449812897  0.2764836643399917  0.4847202581152104
  0.4420495382405747  0.1533557647368369  0.5131207179887909
  0.3541569680374863  0.2728205585843639  0.5248590380800664
  0.4486708263819139  0.3924690647918823  0.4921163945508980
  0.2720288196113501  0.1523855633739615  0.5566758201616651
  0.6117927940068029  0.1600758826409319  0.4676847362505114
  0.3245087125088304  0.5425265720124059  0.5094932214688512
  0.4130014579424781  0.6647098665590363  0.5217639658435189
  0.4949694772085138  0.5439881340338601  0.5443916359775187
  0.4027838083511810  0.4261065404817828  0.5381189647873441
  0.5716553145302683  0.6622005336873755  0.5654494362285618
  0.2550197320351160  0.6605717120523309  0.4775247446714701
  0.9950954154462295  0.9588332428552420  0.5583052953420164
  0.9836617908206833  0.9547249231760233  0.6283279672692217
  0.8441540070024658  0.8485512977797995  0.6298633072049853
  0.8508631617921480  0.8535975839235590  0.5598551171591168
  0.7828182990471717  0.8065809780526791  0.5279889009578866
  0.7105693192976972  0.7552234502190061  0.5644950351118467
  0.7070127047892782  0.7490649664102023  0.6348575732947168
  0.7728191897392520  0.7954070325816858  0.6664506395130303
  0.0454162660418049  0.0034053484956544  0.6634088002760663
  0.1194105969046717  0.0542272601684601  0.6303981004445518
  0.1341846314410162  0.0572233642115378  0.5600603247244962
  0.0714984910781595  0.0102338601045062  0.5250211198602344
  0.7966954627275413  0.0125312999027543  0.5047725701433237
  0.0632630542371686  0.8064938123414507  0.5076657279435608
  0.9286932802121228  0.9088804500414938  0.5163278827907760
  0.9090494337456008  0.8987970266008389  0.6688344667714503
  0.6603843316299560  0.1102942201374830  0.5015810221878780
  0.2174641453975852  0.1068782117447284  0.5250387764975883
  0.1991352240598161  0.7089209435464241  0.5081895236196559
  0.6359556444453318  0.7098403357237615  0.5312786892895360
  0.5266257596472173  0.1977831893221591  0.4915323891295458
  0.3584931087883518  0.1942778862976553  0.5289012420997778
  0.3324972629835656  0.6212069569302372  0.5055047749346926
  0.4914188975231255  0.6225427262445180  0.5412591239529760
  0.0005757809183891  0.8580890131488772  0.4743190717278196
  0.0070223616883354  0.8613411345024602  0.4043315481180514
  0.8803050189175110  0.9698018998373925  0.4028221853702405
  0.8681580906627175  0.9648415282529470  0.4728457134785202
  0.8247772310990058  0.0241120401890953  0.3663231842177836
  0.7558679446519108  0.0713923161628927  0.3979917857326214
  0.7397480579220570  0.0648796821171231  0.4683528776491599
  0.1293837613317095  0.7580769879679892  0.4728384766952374
  0.1320900220047463  0.7598374149456646  0.4025831359116410
  0.0719758295133914  0.8111705904990600  0.3694345090028506
  0.9489119354943440  0.9179381833723497  0.3638098129735354
  0.4437073912009950  0.3085803843416741  0.5028301283558534
  0.4087686135703379  0.5095849312931051  0.5284057310986014
  0.7845136617925732  0.0079616290865800  0.5593429632443332
  0.0611159308269436  0.8046098926159999  0.5621714498951604
  0.6511784603225337  0.7082462702587407  0.6628640278873092
  0.7696404562368500  0.7918825732581354  0.7210129955075075
  0.0344420692315097  0.9996868301072865  0.7179861316554437
  0.1679830816017400  0.0915015300692943  0.6573155281656469
  0.8584947235983478  0.9315821360348906  0.7027903650810643
  0.9513652774595798  0.8610389993974294  0.7026180732553584
  0.2026738271848885  0.7164447723639924  0.5620265189670022
  0.6435650376595774  0.0990405681108868  0.5561644163121997
  0.1831888806270783  0.7214812761098202  0.3757553899851018
  0.0750527306165054  0.8141976532575583  0.3148830712763271
  0.8363372414393524  0.0277112767987546  0.3117624154255765
  0.7120806627371579  0.1130221592286489  0.3700106097799249
  0.7857085573112528  0.8108414197027400  0.4734082793263852
  0.0828910909506320  0.0130308323348558  0.4704382484344123
  0.0038876991711163  0.9544191331558878  0.3292680004778177
  0.9026821759137889  0.8855112801758196  0.3306144554883375
  0.2318080884619604  0.1024285703588674  0.4705640973470508
  0.6370465496763700  0.7190044570168226  0.4763944570748038
 
  0.00000000E+00  0.00000000E+00  0.00000000E+00
  0.00000000E+00  0.00000000E+00  0.00000000E+00
  0.00000000E+00  0.00000000E+00  0.00000000E+00
  0.00000000E+00  0.00000000E+00  0.00000000E+00
  0.00000000E+00  0.00000000E+00  0.00000000E+00
  0.00000000E+00  0.00000000E+00  0.00000000E+00
  0.00000000E+00  0.00000000E+00  0.00000000E+00
  0.00000000E+00  0.00000000E+00  0.00000000E+00
  0.00000000E+00  0.00000000E+00  0.00000000E+00
  0.00000000E+00  0.00000000E+00  0.00000000E+00
  0.00000000E+00  0.00000000E+00  0.00000000E+00
  0.00000000E+00  0.00000000E+00  0.00000000E+00
  0.00000000E+00  0.00000000E+00  0.00000000E+00
  0.00000000E+00  0.00000000E+00  0.00000000E+00
  0.00000000E+00  0.00000000E+00  0.00000000E+00
  0.00000000E+00  0.00000000E+00  0.00000000E+00
  0.00000000E+00  0.00000000E+00  0.00000000E+00
  0.00000000E+00  0.00000000E+00  0.00000000E+00
  0.00000000E+00  0.00000000E+00  0.00000000E+00
  0.00000000E+00  0.00000000E+00  0.00000000E+00
  0.00000000E+00  0.00000000E+00  0.00000000E+00
  0.00000000E+00  0.00000000E+00  0.00000000E+00
  0.00000000E+00  0.00000000E+00  0.00000000E+00
  0.00000000E+00  0.00000000E+00  0.00000000E+00
  0.00000000E+00  0.00000000E+00  0.00000000E+00
  0.00000000E+00  0.00000000E+00  0.00000000E+00
  0.00000000E+00  0.00000000E+00  0.00000000E+00
  0.00000000E+00  0.00000000E+00  0.00000000E+00
  0.00000000E+00  0.00000000E+00  0.00000000E+00
  0.00000000E+00  0.00000000E+00  0.00000000E+00
  0.00000000E+00  0.00000000E+00  0.00000000E+00
  0.00000000E+00  0.00000000E+00  0.00000000E+00
  0.00000000E+00  0.00000000E+00  0.00000000E+00
  0.00000000E+00  0.00000000E+00  0.00000000E+00
  0.00000000E+00  0.00000000E+00  0.00000000E+00
  0.00000000E+00  0.00000000E+00  0.00000000E+00
  0.00000000E+00  0.00000000E+00  0.00000000E+00
  0.00000000E+00  0.00000000E+00  0.00000000E+00
  0.00000000E+00  0.00000000E+00  0.00000000E+00
  0.00000000E+00  0.00000000E+00  0.00000000E+00
  0.00000000E+00  0.00000000E+00  0.00000000E+00
  0.00000000E+00  0.00000000E+00  0.00000000E+00
  0.00000000E+00  0.00000000E+00  0.00000000E+00
  0.00000000E+00  0.00000000E+00  0.00000000E+00
  0.00000000E+00  0.00000000E+00  0.00000000E+00
  0.00000000E+00  0.00000000E+00  0.00000000E+00
  0.00000000E+00  0.00000000E+00  0.00000000E+00
  0.00000000E+00  0.00000000E+00  0.00000000E+00
  0.00000000E+00  0.00000000E+00  0.00000000E+00
  0.00000000E+00  0.00000000E+00  0.00000000E+00
  0.00000000E+00  0.00000000E+00  0.00000000E+00
  0.00000000E+00  0.00000000E+00  0.00000000E+00
  0.00000000E+00  0.00000000E+00  0.00000000E+00
  0.00000000E+00  0.00000000E+00  0.00000000E+00
  0.00000000E+00  0.00000000E+00  0.00000000E+00
  0.00000000E+00  0.00000000E+00  0.00000000E+00
  0.00000000E+00  0.00000000E+00  0.00000000E+00
  0.00000000E+00  0.00000000E+00  0.00000000E+00
  0.00000000E+00  0.00000000E+00  0.00000000E+00
  0.00000000E+00  0.00000000E+00  0.00000000E+00
  0.00000000E+00  0.00000000E+00  0.00000000E+00
  0.00000000E+00  0.00000000E+00  0.00000000E+00
  0.00000000E+00  0.00000000E+00  0.00000000E+00
  0.00000000E+00  0.00000000E+00  0.00000000E+00
  0.00000000E+00  0.00000000E+00  0.00000000E+00
  0.00000000E+00  0.00000000E+00  0.00000000E+00
  0.00000000E+00  0.00000000E+00  0.00000000E+00
  0.00000000E+00  0.00000000E+00  0.00000000E+00
  0.00000000E+00  0.00000000E+00  0.00000000E+00
