Primitive Cell                          
   1.00000000000000     
    29.2266817023268644   -0.0253820700288493    0.0000000000000000
   -14.6351378195113568   25.3588791323580303    0.0000000000000000
     0.0000000000000000    0.0000000000000000   20.0000000000000000
   H    C    N    O 
    30    60    12    12
Direct
  0.1182206920760649  0.6318334778252463  0.5314025039648200
  0.2162777058843801  0.6803604538964620  0.5300831399301202
  0.1170968731289292  0.4899376805605655  0.4699242884110078
  0.2159723761617514  0.5386631781565256  0.4727959207398627
  0.3194186991404919  0.5383750363747595  0.5315353680719284
  0.3677476455885511  0.4888374113673706  0.5318554299802827
  0.4612437045778108  0.6796602493590669  0.4732043964787351
  0.5098540922861901  0.6295733525199694  0.4696905578216288
  0.4616202391393358  0.7833901342574237  0.5304886533402353
  0.5112433506739578  0.8812192968365125  0.5312372804312702
  0.3705814997768471  0.8823060388211985  0.4678843986570129
  0.3203934948395144  0.7836323151376519  0.4709258714459068
  0.8785310587983801  0.3668167421055131  0.4639810608205011
  0.7804783405511131  0.3192684369306349  0.4646575975569078
  0.8812661293138433  0.5090428298570586  0.5276881360073560
  0.7824350680352694  0.4613499916144193  0.5241784469322823
  0.6799272637095015  0.4632083720692393  0.4647653174258295
  0.6327079951325345  0.5138465902679243  0.4640387340031680
  0.5370043824086963  0.3230392883780979  0.5230683420833415
  0.4895100700932886  0.3742370248565905  0.5261610664158809
  0.5352267350231017  0.2181896941400581  0.4647526698087461
  0.4849942283916846  0.1203560394327852  0.4640962214288464
  0.6251698054052710  0.1181422862191965  0.5270077714280319
  0.6759900611600500  0.2168075987958957  0.5237517856757918
  0.5415840602894662  0.0732557859575778  0.3553407065542658
  0.9246969112420160  0.4715954960861524  0.3575311070135143
  0.5298253038253478  0.4578014612428234  0.3567426280658594
  0.4529526450049914  0.9260180074913436  0.6384801277788341
  0.0747414447429122  0.5285214356501839  0.6382182934748215
  0.4710335869534177  0.5467403668016786  0.6391226396050484
  0.4664948437905565  0.4898226232583056  0.5491186668839205
  0.2805925028506735  0.6415113682998381  0.5020767916986060
  0.3585145904957230  0.7191465095329690  0.5017745812062557
  0.3583287041562642  0.6413970742640913  0.5030647271636042
  0.3878708584712811  0.7775030098182398  0.5013710080672666
  0.3621860060050608  0.8055519544301220  0.4839768749439983
  0.3899785310050774  0.8603504460587885  0.4828362559936892
  0.4436810045101822  0.8883485047957222  0.5010989588142820
  0.4693051758062268  0.8602277333604675  0.5185914090053032
  0.4417860941966723  0.8053769926332066  0.5179898115364239
  0.2221274568641007  0.6123979198484264  0.5020339414757373
  0.1942397432214165  0.6384362076633749  0.5181740436409257
  0.1392851303788802  0.6109566990850439  0.5190570073741227
  0.1111155497683569  0.5571077213201931  0.5021741874858847
  0.1391165293957783  0.5313841544139919  0.4844209822646519
  0.1940170317717573  0.5585189542563143  0.4854342991533755
  0.3874452140661333  0.6121382534177116  0.5030034058394506
  0.3613427038169235  0.5582434437099266  0.5192186492797077
  0.3887403246509749  0.5307711447081687  0.5195799490637043
  0.4426064415123179  0.5564285288758555  0.5022587499443532
  0.4684030951913414  0.6101361800646288  0.4845029723774346
  0.4413273961226096  0.6378749220143902  0.4859082574486706
  0.7170007142972068  0.3589754149556299  0.4933611515897596
  0.6385868328636732  0.2818442621611936  0.4933191979799503
  0.6397607641678817  0.3600768328318864  0.4931922852393100
  0.6087796492980360  0.2234974054882883  0.4935860017887777
  0.6341632518375704  0.1951287204878582  0.5108394622093684
  0.6060249777950943  0.1403450450339250  0.5120902415042110
  0.5522729184554223  0.1126647704936232  0.4940213797174735
  0.5269561031944363  0.1410962369503750  0.4765987782516561
  0.5548292483246868  0.1959599422259402  0.4771471745773610
  0.7754570632309665  0.3875024757129211  0.4937012148665474
  0.8028812678429347  0.3610698771185668  0.4771493462575336
  0.8578408254363055  0.3880026487691097  0.4766371427885332
  0.8864579653192095  0.4416703301225482  0.4943084549398478
  0.8589058743454387  0.4677614442653777  0.5125310878782869
  0.8040248584136123  0.4411939965864420  0.5111587036713132
  0.6112729196049997  0.3899486361926918  0.4932651677635391
  0.6380032660165966  0.4438342181121229  0.4769568315802886
  0.6112342346661208  0.4719227945569457  0.4763702688176323
  0.5573785730907019  0.4468699733514470  0.4935742476146245
  0.5309517406546007  0.3931617424126870  0.5114109274298286
  0.5573992253723716  0.3648113793275201  0.5102414120038503
  0.4855657514505438  0.0221944632928555  0.4467460731506492
  0.5236273193866907  0.0543872742673841  0.4950950367596363
  0.4698858985694798  0.0437308188837946  0.3875845454497693
  0.9770981991236667  0.4659394949949771  0.4467556751280455
  0.9448382347829707  0.4711909941791390  0.4955856634860112
  0.9555119530640823  0.4298559125790291  0.3865344070524372
  0.5342820660135104  0.5142462291902987  0.4470551086519876
  0.5280604662639590  0.4758240065307007  0.4949481938945084
  0.5713816247226688  0.5298280910696036  0.3877570383033699
  0.4720393284266535  0.9466145006250954  0.5002241703533628
  0.5099552739144784  0.9787996026865429  0.5487132122115383
  0.5253591618556896  0.9573462649103419  0.6082457952844038
  0.0527333991057759  0.5271401365040873  0.5011918841419103
  0.0204857391930702  0.5323754494443094  0.5500458752906496
  0.0420267413080353  0.5687225736936981  0.6100539211154370
  0.4724655985943471  0.5280046597616490  0.5010062953811101
  0.4297566504785308  0.4744938375023864  0.6087907821925072
  0.5071566744461506  0.5396834344896675  0.4506968105108484
  0.3054105583726852  0.6945310937533620  0.5009901040341092
  0.3868125476183977  0.6944074913004314  0.5028473460709719
  0.3051966997224227  0.6131021511654282  0.5031183074216443
  0.6916716098422881  0.3059307220212304  0.4933279179103494
  0.6107487930312843  0.3070840446650038  0.4932328974930229
  0.6929109817557304  0.3878877774742335  0.4932454472212555
  0.4604262373324843  0.9696410470108248  0.4499377903384456
  0.0297647850344376  0.4931167490416044  0.4502870704920170
  0.5352240482215151  0.0313510005068807  0.5453605135942965
  0.9678268448867087  0.5050811413403338  0.5465824915652320
  0.4934482518997285  0.4642219393687199  0.5452896474521864
  0.3931011224370664  0.4301907666317604  0.6172110869923486
  0.4257215985830172  0.0369129181619385  0.3804389686306422
  0.5084290288537758  0.0709814661401396  0.3414383088669695
  0.9629768165110448  0.3932185147361196  0.3771705473864984
  0.9274727860639942  0.4414171386045709  0.3419670260881844
  0.6082908206776239  0.5740778128480883  0.3798517166853586
  0.5604151457764956  0.4909603290655653  0.3423379758327059
  0.5697620452223404  0.9651113571668972  0.6166100226412041
  0.4862441877900849  0.9290667643363264  0.6533442484114360
  0.0335672552743063  0.6046838679241020  0.6197392216199802
  0.0712437337763561  0.5582412638407135  0.6539932745944057
  0.4407393549850696  0.5135203322933748  0.6539666043156345
 
  0.00000000E+00  0.00000000E+00  0.00000000E+00
  0.00000000E+00  0.00000000E+00  0.00000000E+00
  0.00000000E+00  0.00000000E+00  0.00000000E+00
  0.00000000E+00  0.00000000E+00  0.00000000E+00
  0.00000000E+00  0.00000000E+00  0.00000000E+00
  0.00000000E+00  0.00000000E+00  0.00000000E+00
  0.00000000E+00  0.00000000E+00  0.00000000E+00
  0.00000000E+00  0.00000000E+00  0.00000000E+00
  0.00000000E+00  0.00000000E+00  0.00000000E+00
  0.00000000E+00  0.00000000E+00  0.00000000E+00
  0.00000000E+00  0.00000000E+00  0.00000000E+00
  0.00000000E+00  0.00000000E+00  0.00000000E+00
  0.00000000E+00  0.00000000E+00  0.00000000E+00
  0.00000000E+00  0.00000000E+00  0.00000000E+00
  0.00000000E+00  0.00000000E+00  0.00000000E+00
  0.00000000E+00  0.00000000E+00  0.00000000E+00
  0.00000000E+00  0.00000000E+00  0.00000000E+00
  0.00000000E+00  0.00000000E+00  0.00000000E+00
  0.00000000E+00  0.00000000E+00  0.00000000E+00
  0.00000000E+00  0.00000000E+00  0.00000000E+00
  0.00000000E+00  0.00000000E+00  0.00000000E+00
  0.00000000E+00  0.00000000E+00  0.00000000E+00
  0.00000000E+00  0.00000000E+00  0.00000000E+00
  0.00000000E+00  0.00000000E+00  0.00000000E+00
  0.00000000E+00  0.00000000E+00  0.00000000E+00
  0.00000000E+00  0.00000000E+00  0.00000000E+00
  0.00000000E+00  0.00000000E+00  0.00000000E+00
  0.00000000E+00  0.00000000E+00  0.00000000E+00
  0.00000000E+00  0.00000000E+00  0.00000000E+00
  0.00000000E+00  0.00000000E+00  0.00000000E+00
  0.00000000E+00  0.00000000E+00  0.00000000E+00
  0.00000000E+00  0.00000000E+00  0.00000000E+00
  0.00000000E+00  0.00000000E+00  0.00000000E+00
  0.00000000E+00  0.00000000E+00  0.00000000E+00
  0.00000000E+00  0.00000000E+00  0.00000000E+00
  0.00000000E+00  0.00000000E+00  0.00000000E+00
  0.00000000E+00  0.00000000E+00  0.00000000E+00
  0.00000000E+00  0.00000000E+00  0.00000000E+00
  0.00000000E+00  0.00000000E+00  0.00000000E+00
  0.00000000E+00  0.00000000E+00  0.00000000E+00
  0.00000000E+00  0.00000000E+00  0.00000000E+00
  0.00000000E+00  0.00000000E+00  0.00000000E+00
  0.00000000E+00  0.00000000E+00  0.00000000E+00
  0.00000000E+00  0.00000000E+00  0.00000000E+00
  0.00000000E+00  0.00000000E+00  0.00000000E+00
  0.00000000E+00  0.00000000E+00  0.00000000E+00
  0.00000000E+00  0.00000000E+00  0.00000000E+00
  0.00000000E+00  0.00000000E+00  0.00000000E+00
  0.00000000E+00  0.00000000E+00  0.00000000E+00
  0.00000000E+00  0.00000000E+00  0.00000000E+00
  0.00000000E+00  0.00000000E+00  0.00000000E+00
  0.00000000E+00  0.00000000E+00  0.00000000E+00
  0.00000000E+00  0.00000000E+00  0.00000000E+00
  0.00000000E+00  0.00000000E+00  0.00000000E+00
  0.00000000E+00  0.00000000E+00  0.00000000E+00
  0.00000000E+00  0.00000000E+00  0.00000000E+00
  0.00000000E+00  0.00000000E+00  0.00000000E+00
  0.00000000E+00  0.00000000E+00  0.00000000E+00
  0.00000000E+00  0.00000000E+00  0.00000000E+00
  0.00000000E+00  0.00000000E+00  0.00000000E+00
  0.00000000E+00  0.00000000E+00  0.00000000E+00
  0.00000000E+00  0.00000000E+00  0.00000000E+00
  0.00000000E+00  0.00000000E+00  0.00000000E+00
  0.00000000E+00  0.00000000E+00  0.00000000E+00
  0.00000000E+00  0.00000000E+00  0.00000000E+00
  0.00000000E+00  0.00000000E+00  0.00000000E+00
  0.00000000E+00  0.00000000E+00  0.00000000E+00
  0.00000000E+00  0.00000000E+00  0.00000000E+00
  0.00000000E+00  0.00000000E+00  0.00000000E+00
  0.00000000E+00  0.00000000E+00  0.00000000E+00
  0.00000000E+00  0.00000000E+00  0.00000000E+00
  0.00000000E+00  0.00000000E+00  0.00000000E+00
  0.00000000E+00  0.00000000E+00  0.00000000E+00
  0.00000000E+00  0.00000000E+00  0.00000000E+00
  0.00000000E+00  0.00000000E+00  0.00000000E+00
  0.00000000E+00  0.00000000E+00  0.00000000E+00
  0.00000000E+00  0.00000000E+00  0.00000000E+00
  0.00000000E+00  0.00000000E+00  0.00000000E+00
  0.00000000E+00  0.00000000E+00  0.00000000E+00
  0.00000000E+00  0.00000000E+00  0.00000000E+00
  0.00000000E+00  0.00000000E+00  0.00000000E+00
  0.00000000E+00  0.00000000E+00  0.00000000E+00
  0.00000000E+00  0.00000000E+00  0.00000000E+00
  0.00000000E+00  0.00000000E+00  0.00000000E+00
  0.00000000E+00  0.00000000E+00  0.00000000E+00
  0.00000000E+00  0.00000000E+00  0.00000000E+00
  0.00000000E+00  0.00000000E+00  0.00000000E+00
  0.00000000E+00  0.00000000E+00  0.00000000E+00
  0.00000000E+00  0.00000000E+00  0.00000000E+00
  0.00000000E+00  0.00000000E+00  0.00000000E+00
  0.00000000E+00  0.00000000E+00  0.00000000E+00
  0.00000000E+00  0.00000000E+00  0.00000000E+00
  0.00000000E+00  0.00000000E+00  0.00000000E+00
  0.00000000E+00  0.00000000E+00  0.00000000E+00
  0.00000000E+00  0.00000000E+00  0.00000000E+00
  0.00000000E+00  0.00000000E+00  0.00000000E+00
  0.00000000E+00  0.00000000E+00  0.00000000E+00
  0.00000000E+00  0.00000000E+00  0.00000000E+00
  0.00000000E+00  0.00000000E+00  0.00000000E+00
  0.00000000E+00  0.00000000E+00  0.00000000E+00
  0.00000000E+00  0.00000000E+00  0.00000000E+00
  0.00000000E+00  0.00000000E+00  0.00000000E+00
  0.00000000E+00  0.00000000E+00  0.00000000E+00
  0.00000000E+00  0.00000000E+00  0.00000000E+00
  0.00000000E+00  0.00000000E+00  0.00000000E+00
  0.00000000E+00  0.00000000E+00  0.00000000E+00
  0.00000000E+00  0.00000000E+00  0.00000000E+00
  0.00000000E+00  0.00000000E+00  0.00000000E+00
  0.00000000E+00  0.00000000E+00  0.00000000E+00
  0.00000000E+00  0.00000000E+00  0.00000000E+00
  0.00000000E+00  0.00000000E+00  0.00000000E+00
  0.00000000E+00  0.00000000E+00  0.00000000E+00
  0.00000000E+00  0.00000000E+00  0.00000000E+00
  0.00000000E+00  0.00000000E+00  0.00000000E+00
