Primitive Cell                          
   1.00000000000000     
    22.2940603740546734    0.1558781942746072    0.0000000000000000
   -11.0129445496316407   19.3173888502964424    0.0000000000000000
     0.0000000000000000    0.0000000000000000   20.0000000000000000
   N    C    H 
    18    60    36
Direct
  0.3241490628973693  0.5921852877775109  0.5298247813264823
  0.4276719990516753  0.6948162118473391  0.6034932350103972
  0.2276884633768361  0.4554960040147051  0.4917415030033894
  0.3293603054332337  0.7838842254553313  0.5931881197548208
  0.2449642814465065  0.6333360461224942  0.4078812439281094
  0.4296246528749492  0.7555313036347400  0.6082671752680469
  0.1743420264689988  0.4614264229253990  0.4688857950939891
  0.2289612543801454  0.7746249410783861  0.5159352217838347
  0.1783540359939124  0.7171428447560544  0.4894811286889436
  0.7468972503938076  0.2145619544918489  0.4834975594927400
  0.8005364898360767  0.2742373452396833  0.4638739346140071
  0.6401459197429276  0.4300009367185069  0.6146133648444945
  0.6499852928542893  0.2499341483926756  0.5316304463158090
  0.7330602514155515  0.3797664859464334  0.4250969056492906
  0.5405534819884181  0.3021867352159049  0.6164161877663403
  0.5433820235113913  0.2445391408857205  0.6053136040462093
  0.7952202004297888  0.5169492575655283  0.5161562889415734
  0.7438785351138861  0.5226689159858751  0.5439658210849672
  0.4872000601976794  0.5848967410910717  0.5331258484529258
  0.4422588570317671  0.6116649200366453  0.5388916739474112
  0.3717800348932201  0.5693306308291568  0.5217088343043201
  0.5185201615325283  0.7411021190040259  0.5232709639299316
  0.4656235002674336  0.6843007659739229  0.5575862018567932
  0.2846616543605052  0.4767719533031354  0.4537001905759652
  0.2822797860912019  0.4870243466682425  0.3846350367220737
  0.4652417612353119  0.5175207837025511  0.5104263938623461
  0.3519208297005605  0.5053333498797983  0.4889430027994734
  0.3978568596317942  0.4799558151975205  0.4849662517097784
  0.3723559204805582  0.8353726978351048  0.5530873599515118
  0.0648729078058210  0.4895704216353280  0.3966357130814089
  0.1365261485180014  0.5242997802405398  0.3985772383762907
  0.1735911854034029  0.5974756364422760  0.4026800788812750
  0.4674261923413852  0.8071483543725790  0.5646813017755647
  0.5190286552689045  0.8034098800345291  0.5265342051975210
  0.2273389583757250  0.4937472102666405  0.3610778285767893
  0.1781323344386152  0.4891506235842229  0.4078186908006742
  0.4450310962494441  0.8579837515418873  0.5505765844133279
  0.4891257110527931  0.9238716293260865  0.5250638447254303
  0.6230517239498283  0.1412507214190555  0.4774170135206006
  0.5772797541084245  0.0713697121419230  0.4675127519168853
  0.3933855883873036  0.9331170279837906  0.4823651207452713
  0.3473117141289279  0.8672897292391184  0.5061502784066931
  0.1748197871307795  0.7073174882144784  0.4227718255219699
  0.2149986312140300  0.7624338749050779  0.3793420826613954
  0.2682343090558987  0.8217839002925160  0.4069048968397269
  0.2790174715686149  0.8231502873164303  0.4765717619595193
  0.7983867706934191  0.3018463423766633  0.4043000706087909
  0.7500610270520554  0.2612822942954409  0.3555072564505082
  0.6946524326200105  0.1992126486991950  0.3757916989312022
  0.6908625074400661  0.1820091163501516  0.4438614480505265
  0.5093277046050773  0.0406293102699280  0.4917344445506018
  0.4640668279517541  0.9653405843177012  0.4973383371615725
  0.9501536938737516  0.4868165184930007  0.3989127852972771
  0.9113533173401507  0.4145896949839525  0.3922480861044164
  0.8402244779035826  0.3784503810352433  0.4006884288004855
  0.0263407854914703  0.5243249834936492  0.3958851967409700
  0.1353872120823780  0.6331167483525419  0.4033421676432880
  0.0640002468942100  0.5968636200984108  0.3987541716868606
  0.5993396686555101  0.4428622066371517  0.5747668566938984
  0.5268900846272544  0.3946237782074178  0.5676607033022520
  0.4842041380634541  0.4192720445471707  0.5428169809404508
  0.6024402914654985  0.1820981825077936  0.5159016736631088
  0.8039741530559610  0.4143311344134233  0.4162948374797040
  0.8423938260436188  0.4870767825407043  0.4232662071285347
  0.9133382388649309  0.5214594581239851  0.4148099728161796
  0.5072524087647281  0.2015433023383366  0.5553876114685252
  0.4552195890910156  0.2093812678922760  0.5227484433928566
  0.4541725274160271  0.2703639334075021  0.5323354873694726
  0.5041309706882160  0.3208028192815675  0.5750888170720856
  0.6966593311050175  0.5284547472581593  0.5053925297523065
  0.7117649908484154  0.5469411197098779  0.4374069514008667
  0.7662733344208803  0.5430071912991821  0.4087635775189540
  0.8030500498495172  0.5203594669124811  0.4492702711855472
  0.5105477231371651  0.4871276288534432  0.5193750309083924
  0.5820328536832662  0.5253617095586023  0.5087714776698959
  0.6269193133442030  0.5031179367808036  0.5323958668374758
  0.4865363115765931  0.0841888370037083  0.5188771096950191
  0.5313556611398340  0.1540401914040004  0.5311891697300979
  0.3388320080702627  0.6288119059978925  0.5663504247970153
  0.5399521339467697  0.6159387961995648  0.5509544730364695
  0.5541601632109021  0.7341711086503508  0.4910573999089749
  0.3251621710604127  0.4954027970482500  0.3523907472206886
  0.3809503969777595  0.4298528956598844  0.4615248718991225
  0.2754695226461124  0.5530062569690202  0.5379410319053619
  0.2776063714441790  0.7659699030571971  0.5865989498903659
  0.5948185092971130  0.0400247475199080  0.4407082707849810
  0.2682397440980466  0.6098987632515289  0.4319461537358293
  0.0390065901023888  0.4334318774870525  0.3983316441788887
  0.5546177302464699  0.8471677416525480  0.4961589647239819
  0.2246554837865133  0.5073923190981233  0.3092089278015706
  0.6523692745254053  0.1677389430350829  0.3419767695678431
  0.7536354205628939  0.2808084257139001  0.3047982670864755
  0.5446349732930997  0.9451233658250970  0.5302774844452856
  0.3502285633390869  0.7586866914281742  0.6193286584396276
  0.9368842268599380  0.3844819166487738  0.3818768566756674
  0.2656910147969427  0.6833656944462447  0.4220158745809286
  0.3739710108609344  0.9604533050470536  0.4515542792983709
  0.3046160721053184  0.8639273880497456  0.3753657257488072
  0.2071007317678877  0.7564387107472257  0.3253946198609938
  0.0373770288295390  0.6268780725825778  0.4007746065617255
  0.6179847539800392  0.3818040641276284  0.6361615113746666
  0.4285381585172772  0.3855558255287832  0.5443642858852442
  0.6982446849081114  0.2571235742091105  0.5393854501931514
  0.7136948911397241  0.4069244389581073  0.4486568264357800
  0.9405366953422813  0.5767282966440064  0.4245427707245568
  0.4195075273352629  0.2819360818811631  0.5035254312765787
  0.4208753936853356  0.1707874110681402  0.4870288860171357
  0.7775754736335472  0.5521236060242103  0.3554871464485672
  0.6776715382042013  0.5581145823876810  0.4071662994116281
  0.6029877293741208  0.5736934895458674  0.4808510596837081
  0.6922788758347025  0.4626250844301154  0.6099412645860127
  0.4331830918253488  0.0618119007662514  0.5354349593212504
  0.6338948978530681  0.2680951154820050  0.5706976774637411
  0.7102985551196923  0.3305085608564937  0.4426267480505643
 
  0.00000000E+00  0.00000000E+00  0.00000000E+00
  0.00000000E+00  0.00000000E+00  0.00000000E+00
  0.00000000E+00  0.00000000E+00  0.00000000E+00
  0.00000000E+00  0.00000000E+00  0.00000000E+00
  0.00000000E+00  0.00000000E+00  0.00000000E+00
  0.00000000E+00  0.00000000E+00  0.00000000E+00
  0.00000000E+00  0.00000000E+00  0.00000000E+00
  0.00000000E+00  0.00000000E+00  0.00000000E+00
  0.00000000E+00  0.00000000E+00  0.00000000E+00
  0.00000000E+00  0.00000000E+00  0.00000000E+00
  0.00000000E+00  0.00000000E+00  0.00000000E+00
  0.00000000E+00  0.00000000E+00  0.00000000E+00
  0.00000000E+00  0.00000000E+00  0.00000000E+00
  0.00000000E+00  0.00000000E+00  0.00000000E+00
  0.00000000E+00  0.00000000E+00  0.00000000E+00
  0.00000000E+00  0.00000000E+00  0.00000000E+00
  0.00000000E+00  0.00000000E+00  0.00000000E+00
  0.00000000E+00  0.00000000E+00  0.00000000E+00
  0.00000000E+00  0.00000000E+00  0.00000000E+00
  0.00000000E+00  0.00000000E+00  0.00000000E+00
  0.00000000E+00  0.00000000E+00  0.00000000E+00
  0.00000000E+00  0.00000000E+00  0.00000000E+00
  0.00000000E+00  0.00000000E+00  0.00000000E+00
  0.00000000E+00  0.00000000E+00  0.00000000E+00
  0.00000000E+00  0.00000000E+00  0.00000000E+00
  0.00000000E+00  0.00000000E+00  0.00000000E+00
  0.00000000E+00  0.00000000E+00  0.00000000E+00
  0.00000000E+00  0.00000000E+00  0.00000000E+00
  0.00000000E+00  0.00000000E+00  0.00000000E+00
  0.00000000E+00  0.00000000E+00  0.00000000E+00
  0.00000000E+00  0.00000000E+00  0.00000000E+00
  0.00000000E+00  0.00000000E+00  0.00000000E+00
  0.00000000E+00  0.00000000E+00  0.00000000E+00
  0.00000000E+00  0.00000000E+00  0.00000000E+00
  0.00000000E+00  0.00000000E+00  0.00000000E+00
  0.00000000E+00  0.00000000E+00  0.00000000E+00
  0.00000000E+00  0.00000000E+00  0.00000000E+00
  0.00000000E+00  0.00000000E+00  0.00000000E+00
  0.00000000E+00  0.00000000E+00  0.00000000E+00
  0.00000000E+00  0.00000000E+00  0.00000000E+00
  0.00000000E+00  0.00000000E+00  0.00000000E+00
  0.00000000E+00  0.00000000E+00  0.00000000E+00
  0.00000000E+00  0.00000000E+00  0.00000000E+00
  0.00000000E+00  0.00000000E+00  0.00000000E+00
  0.00000000E+00  0.00000000E+00  0.00000000E+00
  0.00000000E+00  0.00000000E+00  0.00000000E+00
  0.00000000E+00  0.00000000E+00  0.00000000E+00
  0.00000000E+00  0.00000000E+00  0.00000000E+00
  0.00000000E+00  0.00000000E+00  0.00000000E+00
  0.00000000E+00  0.00000000E+00  0.00000000E+00
  0.00000000E+00  0.00000000E+00  0.00000000E+00
  0.00000000E+00  0.00000000E+00  0.00000000E+00
  0.00000000E+00  0.00000000E+00  0.00000000E+00
  0.00000000E+00  0.00000000E+00  0.00000000E+00
  0.00000000E+00  0.00000000E+00  0.00000000E+00
  0.00000000E+00  0.00000000E+00  0.00000000E+00
  0.00000000E+00  0.00000000E+00  0.00000000E+00
  0.00000000E+00  0.00000000E+00  0.00000000E+00
  0.00000000E+00  0.00000000E+00  0.00000000E+00
  0.00000000E+00  0.00000000E+00  0.00000000E+00
  0.00000000E+00  0.00000000E+00  0.00000000E+00
  0.00000000E+00  0.00000000E+00  0.00000000E+00
  0.00000000E+00  0.00000000E+00  0.00000000E+00
  0.00000000E+00  0.00000000E+00  0.00000000E+00
  0.00000000E+00  0.00000000E+00  0.00000000E+00
  0.00000000E+00  0.00000000E+00  0.00000000E+00
  0.00000000E+00  0.00000000E+00  0.00000000E+00
  0.00000000E+00  0.00000000E+00  0.00000000E+00
  0.00000000E+00  0.00000000E+00  0.00000000E+00
  0.00000000E+00  0.00000000E+00  0.00000000E+00
  0.00000000E+00  0.00000000E+00  0.00000000E+00
  0.00000000E+00  0.00000000E+00  0.00000000E+00
  0.00000000E+00  0.00000000E+00  0.00000000E+00
  0.00000000E+00  0.00000000E+00  0.00000000E+00
  0.00000000E+00  0.00000000E+00  0.00000000E+00
  0.00000000E+00  0.00000000E+00  0.00000000E+00
  0.00000000E+00  0.00000000E+00  0.00000000E+00
  0.00000000E+00  0.00000000E+00  0.00000000E+00
  0.00000000E+00  0.00000000E+00  0.00000000E+00
  0.00000000E+00  0.00000000E+00  0.00000000E+00
  0.00000000E+00  0.00000000E+00  0.00000000E+00
  0.00000000E+00  0.00000000E+00  0.00000000E+00
  0.00000000E+00  0.00000000E+00  0.00000000E+00
  0.00000000E+00  0.00000000E+00  0.00000000E+00
  0.00000000E+00  0.00000000E+00  0.00000000E+00
  0.00000000E+00  0.00000000E+00  0.00000000E+00
  0.00000000E+00  0.00000000E+00  0.00000000E+00
  0.00000000E+00  0.00000000E+00  0.00000000E+00
  0.00000000E+00  0.00000000E+00  0.00000000E+00
  0.00000000E+00  0.00000000E+00  0.00000000E+00
  0.00000000E+00  0.00000000E+00  0.00000000E+00
  0.00000000E+00  0.00000000E+00  0.00000000E+00
  0.00000000E+00  0.00000000E+00  0.00000000E+00
  0.00000000E+00  0.00000000E+00  0.00000000E+00
  0.00000000E+00  0.00000000E+00  0.00000000E+00
  0.00000000E+00  0.00000000E+00  0.00000000E+00
  0.00000000E+00  0.00000000E+00  0.00000000E+00
  0.00000000E+00  0.00000000E+00  0.00000000E+00
  0.00000000E+00  0.00000000E+00  0.00000000E+00
  0.00000000E+00  0.00000000E+00  0.00000000E+00
  0.00000000E+00  0.00000000E+00  0.00000000E+00
  0.00000000E+00  0.00000000E+00  0.00000000E+00
  0.00000000E+00  0.00000000E+00  0.00000000E+00
  0.00000000E+00  0.00000000E+00  0.00000000E+00
  0.00000000E+00  0.00000000E+00  0.00000000E+00
  0.00000000E+00  0.00000000E+00  0.00000000E+00
  0.00000000E+00  0.00000000E+00  0.00000000E+00
  0.00000000E+00  0.00000000E+00  0.00000000E+00
  0.00000000E+00  0.00000000E+00  0.00000000E+00
  0.00000000E+00  0.00000000E+00  0.00000000E+00
  0.00000000E+00  0.00000000E+00  0.00000000E+00
  0.00000000E+00  0.00000000E+00  0.00000000E+00
  0.00000000E+00  0.00000000E+00  0.00000000E+00
  0.00000000E+00  0.00000000E+00  0.00000000E+00
