Primitive Cell                          
   1.00000000000000     
    29.7959142972340878    0.0000000000000000    0.0000000000000000
   -14.8979571486170492   25.8040187103886680    0.0000000000000000
     0.0000000000000000    0.0000000000000000   20.0000000000000000
   H    C    N 
    36    60     6
Direct
  0.0429458243315324  0.5214729121657697  0.6127624351906888
  0.0429143945605546  0.5214571972802702  0.3971048482788291
  0.1171375861099548  0.4863534605553497  0.5048639971984556
  0.2116166420766703  0.5332558729780175  0.5048254518592259
  0.1171375861099548  0.6307841255546052  0.5048639971984556
  0.2116166420766703  0.6783607690986528  0.5048254518592259
  0.3216392309013472  0.7883833579233297  0.5048254518592259
  0.3692158744453948  0.8828624138900452  0.5048639971984556
  0.4667441270219825  0.7883833579233297  0.5048254518592259
  0.5136465394446503  0.8828624138900452  0.5048639971984556
  0.4667441270219825  0.6783607690986528  0.5048254518592259
  0.5136465394446503  0.6307841255546052  0.5048639971984556
  0.3692158744453948  0.4863534605553497  0.5048639971984556
  0.3216392309013472  0.5332558729780175  0.5048254518592259
  0.2854152947945252  0.5708305895890433  0.5047815155742938
  0.2854152947945252  0.7145847052054748  0.5047815155742938
  0.4291694104109567  0.7145847052054748  0.5047815155742938
  0.8830327198407417  0.5137208706406540  0.5049127442137689
  0.7885545549405606  0.4668232502951142  0.5048431473162083
  0.8830327198407417  0.3693118492000949  0.5049127442137689
  0.7885545549405606  0.3217313046454464  0.5048431473162083
  0.6782686953545536  0.2114454450594394  0.5048431473162083
  0.6306881507999051  0.1169672801592583  0.5049127442137689
  0.5331767497048858  0.2114454450594394  0.5048431473162083
  0.4862791293593460  0.1169672801592583  0.5049127442137689
  0.5331767497048858  0.3217313046454464  0.5048431473162083
  0.4862791293593460  0.3693118492000949  0.5049127442137689
  0.6306881507999051  0.5137208706406540  0.5049127442137689
  0.6782686953545536  0.4668232502951142  0.5048431473162083
  0.7145903644892968  0.4291807289785936  0.5047919114870041
  0.7145903644892968  0.2854096355107032  0.5047919114870041
  0.5708192710214064  0.2854096355107032  0.5047919114870041
  0.4785270878342303  0.5214729121657697  0.6127624351906888
  0.4785270878342303  0.9570541756684605  0.6127624351906888
  0.4785428027197298  0.5214571972802702  0.3971048482788291
  0.4785428027197298  0.9570856054394454  0.3971048482788291
  0.0234946561310920  0.5117473280655460  0.5641160214231462
  0.0234771150547459  0.5117385575273659  0.4457610335319018
  0.0525687639630803  0.5262843819815402  0.5049280644825487
  0.2783423293558229  0.6391711646779115  0.5047690859315637
  0.3064597075413715  0.6129194150827431  0.5047653776099068
  0.3608288353220814  0.6391711646779115  0.5047690859315637
  0.3870805849172569  0.6935402924586285  0.5047653776099068
  0.3608288353220814  0.7216576706441771  0.5047690859315637
  0.3064597075413715  0.6935402924586285  0.5047653776099068
  0.3896973491440932  0.6103026508559068  0.5048024713564061
  0.3638146253442329  0.5557441112936061  0.5048250872931064
  0.3906829345764322  0.5286481031443060  0.5048585174095805
  0.4450035268944177  0.5549964731055752  0.5048854966880540
  0.4713518968556940  0.6093170654235678  0.5048585174095805
  0.4442558887063939  0.6361853746557671  0.5048250872931064
  0.2206053017118066  0.6103026508559068  0.5048024713564061
  0.1919294859493732  0.5557441112936061  0.5048250872931064
  0.1379651685678667  0.5286481031443060  0.5048585174095805
  0.1099929462111646  0.5549964731055752  0.5048854966880540
  0.1379651685678667  0.6093170654235678  0.5048585174095805
  0.1919294859493732  0.6361853746557671  0.5048250872931064
  0.3896973491440932  0.7793946982881934  0.5048024713564061
  0.3638146253442329  0.8080705140506268  0.5048250872931064
  0.3906829345764322  0.8620348314321333  0.5048585174095805
  0.4450035268944177  0.8900070537888354  0.5048854966880540
  0.4713518968556940  0.8620348314321333  0.5048585174095805
  0.4442558887063939  0.8080705140506268  0.5048250872931064
  0.7217019875148409  0.3608509937574169  0.5047748862765005
  0.6935430123116078  0.3870860246232084  0.5047715426809489
  0.6391490062425760  0.3608509937574169  0.5047748862765005
  0.6129139753767916  0.3064569876883922  0.5047715426809489
  0.6391490062425760  0.2782980124851591  0.5047748862765005
  0.6935430123116078  0.3064569876883922  0.5047715426809489
  0.6102389584990107  0.3897610415009893  0.5048201321878736
  0.6360914497431693  0.4443298240637645  0.5048524588439705
  0.6092108254141593  0.4714354609962115  0.5049021753239131
  0.5550166904907954  0.4449833095092046  0.5049330807614112
  0.5285645390037885  0.3907891745858407  0.5049021753239131
  0.5556701759362355  0.3639085502568236  0.5048524588439705
  0.7795220830019645  0.3897610415009893  0.5048201321878736
  0.8082383743205881  0.4443298240637645  0.5048524588439705
  0.8622246355820451  0.4714354609962115  0.5049021753239131
  0.8899666190184021  0.4449833095092046  0.5049330807614112
  0.8622246355820451  0.3907891745858407  0.5049021753239131
  0.8082383743205881  0.3639085502568236  0.5048524588439705
  0.6102389584990107  0.2204779169980355  0.5048201321878736
  0.6360914497431693  0.1917616256794119  0.5048524588439705
  0.6092108254141593  0.1377753644179549  0.5049021753239131
  0.5550166904907954  0.1100333809815979  0.5049330807614112
  0.5285645390037885  0.1377753644179549  0.5049021753239131
  0.5556701759362355  0.1917616256794119  0.5048524588439705
  0.4882526719344540  0.5117473280655460  0.5641160214231462
  0.5260912977503267  0.4739087022496733  0.5049593869268563
  0.4882526719344540  0.9765053438689080  0.5641160214231462
  0.5260912977503267  0.0521825955006534  0.5049593869268563
  0.9478174044993466  0.4739087022496733  0.5049593869268563
  0.4882614424726341  0.5117385575273659  0.4457610335319018
  0.4737156180184598  0.5262843819815402  0.5049280644825487
  0.4882614424726341  0.9765228849452541  0.4457610335319018
  0.4737156180184598  0.9474312360369197  0.5049280644825487
  0.5141947021691564  0.4858052978308436  0.5648622177556391
  0.5141947021691564  0.0283894043383128  0.5648622177556391
  0.9716105956616872  0.4858052978308436  0.5648622177556391
  0.5142011339136374  0.4857988660863626  0.4450550281299428
  0.5142011339136374  0.0284022678272677  0.4450550281299428
  0.9715977321727323  0.4857988660863626  0.4450550281299428
 
  0.00000000E+00  0.00000000E+00  0.00000000E+00
  0.00000000E+00  0.00000000E+00  0.00000000E+00
  0.00000000E+00  0.00000000E+00  0.00000000E+00
  0.00000000E+00  0.00000000E+00  0.00000000E+00
  0.00000000E+00  0.00000000E+00  0.00000000E+00
  0.00000000E+00  0.00000000E+00  0.00000000E+00
  0.00000000E+00  0.00000000E+00  0.00000000E+00
  0.00000000E+00  0.00000000E+00  0.00000000E+00
  0.00000000E+00  0.00000000E+00  0.00000000E+00
  0.00000000E+00  0.00000000E+00  0.00000000E+00
  0.00000000E+00  0.00000000E+00  0.00000000E+00
  0.00000000E+00  0.00000000E+00  0.00000000E+00
  0.00000000E+00  0.00000000E+00  0.00000000E+00
  0.00000000E+00  0.00000000E+00  0.00000000E+00
  0.00000000E+00  0.00000000E+00  0.00000000E+00
  0.00000000E+00  0.00000000E+00  0.00000000E+00
  0.00000000E+00  0.00000000E+00  0.00000000E+00
  0.00000000E+00  0.00000000E+00  0.00000000E+00
  0.00000000E+00  0.00000000E+00  0.00000000E+00
  0.00000000E+00  0.00000000E+00  0.00000000E+00
  0.00000000E+00  0.00000000E+00  0.00000000E+00
  0.00000000E+00  0.00000000E+00  0.00000000E+00
  0.00000000E+00  0.00000000E+00  0.00000000E+00
  0.00000000E+00  0.00000000E+00  0.00000000E+00
  0.00000000E+00  0.00000000E+00  0.00000000E+00
  0.00000000E+00  0.00000000E+00  0.00000000E+00
  0.00000000E+00  0.00000000E+00  0.00000000E+00
  0.00000000E+00  0.00000000E+00  0.00000000E+00
  0.00000000E+00  0.00000000E+00  0.00000000E+00
  0.00000000E+00  0.00000000E+00  0.00000000E+00
  0.00000000E+00  0.00000000E+00  0.00000000E+00
  0.00000000E+00  0.00000000E+00  0.00000000E+00
  0.00000000E+00  0.00000000E+00  0.00000000E+00
  0.00000000E+00  0.00000000E+00  0.00000000E+00
  0.00000000E+00  0.00000000E+00  0.00000000E+00
  0.00000000E+00  0.00000000E+00  0.00000000E+00
  0.00000000E+00  0.00000000E+00  0.00000000E+00
  0.00000000E+00  0.00000000E+00  0.00000000E+00
  0.00000000E+00  0.00000000E+00  0.00000000E+00
  0.00000000E+00  0.00000000E+00  0.00000000E+00
  0.00000000E+00  0.00000000E+00  0.00000000E+00
  0.00000000E+00  0.00000000E+00  0.00000000E+00
  0.00000000E+00  0.00000000E+00  0.00000000E+00
  0.00000000E+00  0.00000000E+00  0.00000000E+00
  0.00000000E+00  0.00000000E+00  0.00000000E+00
  0.00000000E+00  0.00000000E+00  0.00000000E+00
  0.00000000E+00  0.00000000E+00  0.00000000E+00
  0.00000000E+00  0.00000000E+00  0.00000000E+00
  0.00000000E+00  0.00000000E+00  0.00000000E+00
  0.00000000E+00  0.00000000E+00  0.00000000E+00
  0.00000000E+00  0.00000000E+00  0.00000000E+00
  0.00000000E+00  0.00000000E+00  0.00000000E+00
  0.00000000E+00  0.00000000E+00  0.00000000E+00
  0.00000000E+00  0.00000000E+00  0.00000000E+00
  0.00000000E+00  0.00000000E+00  0.00000000E+00
  0.00000000E+00  0.00000000E+00  0.00000000E+00
  0.00000000E+00  0.00000000E+00  0.00000000E+00
  0.00000000E+00  0.00000000E+00  0.00000000E+00
  0.00000000E+00  0.00000000E+00  0.00000000E+00
  0.00000000E+00  0.00000000E+00  0.00000000E+00
  0.00000000E+00  0.00000000E+00  0.00000000E+00
  0.00000000E+00  0.00000000E+00  0.00000000E+00
  0.00000000E+00  0.00000000E+00  0.00000000E+00
  0.00000000E+00  0.00000000E+00  0.00000000E+00
  0.00000000E+00  0.00000000E+00  0.00000000E+00
  0.00000000E+00  0.00000000E+00  0.00000000E+00
  0.00000000E+00  0.00000000E+00  0.00000000E+00
  0.00000000E+00  0.00000000E+00  0.00000000E+00
  0.00000000E+00  0.00000000E+00  0.00000000E+00
  0.00000000E+00  0.00000000E+00  0.00000000E+00
  0.00000000E+00  0.00000000E+00  0.00000000E+00
  0.00000000E+00  0.00000000E+00  0.00000000E+00
  0.00000000E+00  0.00000000E+00  0.00000000E+00
  0.00000000E+00  0.00000000E+00  0.00000000E+00
  0.00000000E+00  0.00000000E+00  0.00000000E+00
  0.00000000E+00  0.00000000E+00  0.00000000E+00
  0.00000000E+00  0.00000000E+00  0.00000000E+00
  0.00000000E+00  0.00000000E+00  0.00000000E+00
  0.00000000E+00  0.00000000E+00  0.00000000E+00
  0.00000000E+00  0.00000000E+00  0.00000000E+00
  0.00000000E+00  0.00000000E+00  0.00000000E+00
  0.00000000E+00  0.00000000E+00  0.00000000E+00
  0.00000000E+00  0.00000000E+00  0.00000000E+00
  0.00000000E+00  0.00000000E+00  0.00000000E+00
  0.00000000E+00  0.00000000E+00  0.00000000E+00
  0.00000000E+00  0.00000000E+00  0.00000000E+00
  0.00000000E+00  0.00000000E+00  0.00000000E+00
  0.00000000E+00  0.00000000E+00  0.00000000E+00
  0.00000000E+00  0.00000000E+00  0.00000000E+00
  0.00000000E+00  0.00000000E+00  0.00000000E+00
  0.00000000E+00  0.00000000E+00  0.00000000E+00
  0.00000000E+00  0.00000000E+00  0.00000000E+00
  0.00000000E+00  0.00000000E+00  0.00000000E+00
  0.00000000E+00  0.00000000E+00  0.00000000E+00
  0.00000000E+00  0.00000000E+00  0.00000000E+00
  0.00000000E+00  0.00000000E+00  0.00000000E+00
  0.00000000E+00  0.00000000E+00  0.00000000E+00
  0.00000000E+00  0.00000000E+00  0.00000000E+00
  0.00000000E+00  0.00000000E+00  0.00000000E+00
  0.00000000E+00  0.00000000E+00  0.00000000E+00
  0.00000000E+00  0.00000000E+00  0.00000000E+00
  0.00000000E+00  0.00000000E+00  0.00000000E+00
