Primitive Cell                          
   1.00000000000000     
    29.2425736488068821   -0.0055103681150626    0.0000000000000000
   -14.6260600189187020   25.3219989793110862    0.0000000000000000
     0.0000000000000000    0.0000000000000000   20.0000000000000000
   N    C    H 
    12    57    36
Direct
  0.3888084721828733  0.6945269409116932  0.4991265692481761
  0.3067918492503665  0.6934950965468474  0.4983175439529361
  0.3077402508167353  0.6124716990169503  0.4983850712948197
  0.6133457459805669  0.3066784348813556  0.5001770182590022
  0.6944947241563071  0.3060505468055652  0.5000997927718629
  0.6951027772376364  0.3878325708326287  0.5001574637534603
  0.5137517141466503  0.9700062131734342  0.5473792998455878
  0.4572575010386331  0.4866766766641888  0.5466230716843654
  0.0313517891330122  0.5445857064444439  0.5453928010495233
  0.4512239883403879  0.9719646876762624  0.4721887873903370
  0.5212995499499868  0.5485878589253090  0.4704865289274167
  0.0292290575522571  0.4798422266335933  0.4705217052094355
  0.3608393988063838  0.6413968898985090  0.4988299251682449
  0.3599077935583992  0.7187198463414433  0.4987352296966279
  0.2825652305518105  0.6404109486347522  0.4984538907532539
  0.3884412180778867  0.7770807119718981  0.4998295974668139
  0.4411039910069974  0.8052989962541375  0.5218549286337151
  0.4673450330571995  0.8600764776743404  0.5255429478506386
  0.4422234843589976  0.8880253926999231  0.5049560476771404
  0.3899782465242865  0.8598123181151962  0.4812825307364932
  0.3630776081512934  0.8049218824088484  0.4798910311896236
  0.3904939184381959  0.6127131399996344  0.4999167791782000
  0.4435549019150358  0.6377335942537528  0.4794025097919175
  0.4711992365978332  0.6104946253460213  0.4803373725216886
  0.4469916205257789  0.5582973449363280  0.5042086824896188
  0.3940971660623234  0.5335582407456840  0.5255116739408692
  0.3658770706772501  0.5601149454350534  0.5222398577094864
  0.2242067675377228  0.6107976295118647  0.4995396194642012
  0.1961087087433100  0.5575643848475451  0.4797391621146119
  0.1412083028339666  0.5299792278166038  0.4806353480248262
  0.1132602857726468  0.5544343529119899  0.5037257303006655
  0.1414744506527796  0.6074993221020080  0.5243506625369818
  0.1962729922243511  0.6356355542255585  0.5211695073878033
  0.6419936763149181  0.3597799092186378  0.5002970169998093
  0.6413843548484550  0.2816197566843002  0.5002339204858259
  0.7195480386037403  0.3591902058243477  0.5001363169524282
  0.6118553808179144  0.2232384797862679  0.5015046649124955
  0.5567580759631880  0.1954017828880339  0.5098059060654023
  0.5292659539174309  0.1405270421342024  0.5129079728217079
  0.5558382256697527  0.1116677023952377  0.5076402345664874
  0.6109552975861448  0.1398588255587256  0.4981396667976199
  0.6385648327626612  0.1946899870107188  0.4953342030776469
  0.6130319574901577  0.3891950216678879  0.5016158423575305
  0.5577464610799154  0.3622671367641743  0.4954586185732737
  0.5303274855398072  0.3896633646846652  0.4981207107597712
  0.5570685502427750  0.4447797938587499  0.5074537586824590
  0.6125248570609543  0.4715881086048626  0.5128252658032437
  0.6401147771310534  0.4443025125241604  0.5098616294872400
  0.7779545193472188  0.3882642939089891  0.5011930669675664
  0.8062662970029280  0.4435294306609379  0.4946208145537412
  0.8611092630749582  0.4710544135671100  0.4970847985009215
  0.8895866825898580  0.4444566675615675  0.5066732758178674
  0.8609744122430882  0.3890208438486340  0.5124228804747943
  0.8060791067245248  0.3613250512258759  0.5096075094500065
  0.5412916078886028  0.0228763678658126  0.5499692693490559
  0.5262738677422405  0.0534687309409279  0.5105868010745738
  0.4706257761521826  0.9464014277023196  0.5081985623491150
  0.5867157174822850  0.0462944706509703  0.5983568459144379
  0.4825911147394564  0.4591588024152600  0.5493329674391987
  0.5281948115670616  0.4740974002501730  0.5099424559776438
  0.4766663378559741  0.5296053718338882  0.5071000264892263
  0.4605114083856208  0.4137959449231516  0.5978369256034242
  0.9784858576950981  0.5193084532876568  0.5480315703223155
  0.9478016364325867  0.4733838678196420  0.5091638783673176
  0.0548781762912398  0.5248157923601795  0.5065227962406951
  0.9552568045780845  0.5418154985783943  0.5959440805556255
  0.4794397944233282  0.0245267663504052  0.4736757388161834
  0.5457532267691150  0.5205157154571225  0.4722776131290090
  0.9766797120854491  0.4554771004758322  0.4721725269923454
  0.5120087783817340  0.6292432105281662  0.4632019708606023
  0.4624048386735140  0.6785860451061012  0.4623923776558456
  0.3757241748229987  0.4932598569938094  0.5444404700770420
  0.3246257922307407  0.5409264303910888  0.5376346121465403
  0.2180917243157552  0.5385506260800312  0.4633265989630786
  0.1190751705524633  0.4890353496513740  0.4640327145092584
  0.2183856862687108  0.6770023414936972  0.5360658468320096
  0.1195856320702759  0.6260827526082977  0.5426502466845022
  0.3221904533198696  0.7827534205974942  0.4630439190529714
  0.3709193300403300  0.8817079806827053  0.4646912093806250
  0.5076872584502823  0.8821740450786777  0.5443010528026875
  0.4605783324783133  0.7834039960671646  0.5367231337034042
  0.4875358049056544  0.3682784715037002  0.4920215155940255
  0.5368681567965794  0.3196118784899227  0.4883559140988893
  0.6339661053407895  0.5142343309256105  0.5207769854291371
  0.6829675921095202  0.4651245808191362  0.5147470195948571
  0.7844499335103094  0.4643410907739565  0.4873771053480453
  0.8824360743640369  0.5138197101682849  0.4906512444115236
  0.7840966516177232  0.3184949254536349  0.5147767572497557
  0.8822256638138057  0.3676675191950309  0.5205911788908182
  0.6812139182573631  0.2163187956101567  0.4881414386460250
  0.6321892205556594  0.1183037748845734  0.4920911962814500
  0.4866350051812631  0.1194841637612782  0.5209613028496065
  0.5361237378318080  0.2175990387824385  0.5146693233646999
  0.5956946139881367  0.0854362354217955  0.6159958425023504
  0.5772584849179339  0.0193370521305667  0.6408776490422028
  0.6226936276151136  0.0505136932398855  0.5748941280742628
  0.4906736984062334  0.4049236460561829  0.6157450921113536
  0.4428534480331123  0.4232635553749517  0.6401620022713601
  0.4288403142256314  0.3777589958663512  0.5743538930568306
  0.9161887146808567  0.5118380626824788  0.6140388522737084
  0.9824113800393093  0.5598030645000307  0.6381693759573039
  0.9509553277922080  0.5733190430056112  0.5718737243455010
  0.4647444632590947  0.0455212962976077  0.4430916428601321
  0.5812247868767173  0.5349517065934393  0.4413053656408792
  0.9556302023165486  0.4197567872516430  0.4416316343484041
 
  0.00000000E+00  0.00000000E+00  0.00000000E+00
  0.00000000E+00  0.00000000E+00  0.00000000E+00
  0.00000000E+00  0.00000000E+00  0.00000000E+00
  0.00000000E+00  0.00000000E+00  0.00000000E+00
  0.00000000E+00  0.00000000E+00  0.00000000E+00
  0.00000000E+00  0.00000000E+00  0.00000000E+00
  0.00000000E+00  0.00000000E+00  0.00000000E+00
  0.00000000E+00  0.00000000E+00  0.00000000E+00
  0.00000000E+00  0.00000000E+00  0.00000000E+00
  0.00000000E+00  0.00000000E+00  0.00000000E+00
  0.00000000E+00  0.00000000E+00  0.00000000E+00
  0.00000000E+00  0.00000000E+00  0.00000000E+00
  0.00000000E+00  0.00000000E+00  0.00000000E+00
  0.00000000E+00  0.00000000E+00  0.00000000E+00
  0.00000000E+00  0.00000000E+00  0.00000000E+00
  0.00000000E+00  0.00000000E+00  0.00000000E+00
  0.00000000E+00  0.00000000E+00  0.00000000E+00
  0.00000000E+00  0.00000000E+00  0.00000000E+00
  0.00000000E+00  0.00000000E+00  0.00000000E+00
  0.00000000E+00  0.00000000E+00  0.00000000E+00
  0.00000000E+00  0.00000000E+00  0.00000000E+00
  0.00000000E+00  0.00000000E+00  0.00000000E+00
  0.00000000E+00  0.00000000E+00  0.00000000E+00
  0.00000000E+00  0.00000000E+00  0.00000000E+00
  0.00000000E+00  0.00000000E+00  0.00000000E+00
  0.00000000E+00  0.00000000E+00  0.00000000E+00
  0.00000000E+00  0.00000000E+00  0.00000000E+00
  0.00000000E+00  0.00000000E+00  0.00000000E+00
  0.00000000E+00  0.00000000E+00  0.00000000E+00
  0.00000000E+00  0.00000000E+00  0.00000000E+00
  0.00000000E+00  0.00000000E+00  0.00000000E+00
  0.00000000E+00  0.00000000E+00  0.00000000E+00
  0.00000000E+00  0.00000000E+00  0.00000000E+00
  0.00000000E+00  0.00000000E+00  0.00000000E+00
  0.00000000E+00  0.00000000E+00  0.00000000E+00
  0.00000000E+00  0.00000000E+00  0.00000000E+00
  0.00000000E+00  0.00000000E+00  0.00000000E+00
  0.00000000E+00  0.00000000E+00  0.00000000E+00
  0.00000000E+00  0.00000000E+00  0.00000000E+00
  0.00000000E+00  0.00000000E+00  0.00000000E+00
  0.00000000E+00  0.00000000E+00  0.00000000E+00
  0.00000000E+00  0.00000000E+00  0.00000000E+00
  0.00000000E+00  0.00000000E+00  0.00000000E+00
  0.00000000E+00  0.00000000E+00  0.00000000E+00
  0.00000000E+00  0.00000000E+00  0.00000000E+00
  0.00000000E+00  0.00000000E+00  0.00000000E+00
  0.00000000E+00  0.00000000E+00  0.00000000E+00
  0.00000000E+00  0.00000000E+00  0.00000000E+00
  0.00000000E+00  0.00000000E+00  0.00000000E+00
  0.00000000E+00  0.00000000E+00  0.00000000E+00
  0.00000000E+00  0.00000000E+00  0.00000000E+00
  0.00000000E+00  0.00000000E+00  0.00000000E+00
  0.00000000E+00  0.00000000E+00  0.00000000E+00
  0.00000000E+00  0.00000000E+00  0.00000000E+00
  0.00000000E+00  0.00000000E+00  0.00000000E+00
  0.00000000E+00  0.00000000E+00  0.00000000E+00
  0.00000000E+00  0.00000000E+00  0.00000000E+00
  0.00000000E+00  0.00000000E+00  0.00000000E+00
  0.00000000E+00  0.00000000E+00  0.00000000E+00
  0.00000000E+00  0.00000000E+00  0.00000000E+00
  0.00000000E+00  0.00000000E+00  0.00000000E+00
  0.00000000E+00  0.00000000E+00  0.00000000E+00
  0.00000000E+00  0.00000000E+00  0.00000000E+00
  0.00000000E+00  0.00000000E+00  0.00000000E+00
  0.00000000E+00  0.00000000E+00  0.00000000E+00
  0.00000000E+00  0.00000000E+00  0.00000000E+00
  0.00000000E+00  0.00000000E+00  0.00000000E+00
  0.00000000E+00  0.00000000E+00  0.00000000E+00
  0.00000000E+00  0.00000000E+00  0.00000000E+00
  0.00000000E+00  0.00000000E+00  0.00000000E+00
  0.00000000E+00  0.00000000E+00  0.00000000E+00
  0.00000000E+00  0.00000000E+00  0.00000000E+00
  0.00000000E+00  0.00000000E+00  0.00000000E+00
  0.00000000E+00  0.00000000E+00  0.00000000E+00
  0.00000000E+00  0.00000000E+00  0.00000000E+00
  0.00000000E+00  0.00000000E+00  0.00000000E+00
  0.00000000E+00  0.00000000E+00  0.00000000E+00
  0.00000000E+00  0.00000000E+00  0.00000000E+00
  0.00000000E+00  0.00000000E+00  0.00000000E+00
  0.00000000E+00  0.00000000E+00  0.00000000E+00
  0.00000000E+00  0.00000000E+00  0.00000000E+00
  0.00000000E+00  0.00000000E+00  0.00000000E+00
  0.00000000E+00  0.00000000E+00  0.00000000E+00
  0.00000000E+00  0.00000000E+00  0.00000000E+00
  0.00000000E+00  0.00000000E+00  0.00000000E+00
  0.00000000E+00  0.00000000E+00  0.00000000E+00
  0.00000000E+00  0.00000000E+00  0.00000000E+00
  0.00000000E+00  0.00000000E+00  0.00000000E+00
  0.00000000E+00  0.00000000E+00  0.00000000E+00
  0.00000000E+00  0.00000000E+00  0.00000000E+00
  0.00000000E+00  0.00000000E+00  0.00000000E+00
  0.00000000E+00  0.00000000E+00  0.00000000E+00
  0.00000000E+00  0.00000000E+00  0.00000000E+00
  0.00000000E+00  0.00000000E+00  0.00000000E+00
  0.00000000E+00  0.00000000E+00  0.00000000E+00
  0.00000000E+00  0.00000000E+00  0.00000000E+00
  0.00000000E+00  0.00000000E+00  0.00000000E+00
  0.00000000E+00  0.00000000E+00  0.00000000E+00
  0.00000000E+00  0.00000000E+00  0.00000000E+00
  0.00000000E+00  0.00000000E+00  0.00000000E+00
  0.00000000E+00  0.00000000E+00  0.00000000E+00
  0.00000000E+00  0.00000000E+00  0.00000000E+00
  0.00000000E+00  0.00000000E+00  0.00000000E+00
  0.00000000E+00  0.00000000E+00  0.00000000E+00
  0.00000000E+00  0.00000000E+00  0.00000000E+00
