Primitive Cell                          
   1.00000000000000     
    23.4886585746517866   -0.0008859738718530    0.0000000000000000
   -11.7451129952343898   20.3371690238207172    0.0000000000000000
     0.0000000000000000    0.0000000000000000   20.0000000000000000
   H    C    O 
    42    72    12
Direct
  0.6780413891989880  0.3977954494041285  0.4883958761989362
  0.4432328842417306  0.3776170875707976  0.4918293783279353
  0.5021633574388247  0.3372046097709287  0.3789468929869315
  0.7152930032516309  0.5029391146338469  0.3814978925403167
  0.6281508419890045  0.5616696339017864  0.4890202243681898
  0.4979957213184107  0.2883334922701906  0.5984519017399634
  0.7158554254849321  0.5091110404167480  0.5974414102760051
  0.6081112603535601  0.2558392344744647  0.4882262494364795
  0.3963581439408017  0.9465539646920504  0.4915601602523267
  0.7504478086065376  0.3282228799910172  0.4879882379046094
  0.9651584863059171  0.5630214856032225  0.4916435873300600
  0.5023870068940113  0.1877263893822771  0.3816583363113750
  0.8652607288551764  0.5037411487398700  0.3782416778057609
  0.4443262329237356  0.0418945134592690  0.4890848092474940
  0.0604734098030590  0.6101405202367189  0.4891120742595874
  0.4974869631023466  0.1823059844516166  0.5976412013491128
  0.8215544301032907  0.5089619790188280  0.5979407802476331
  0.6284775543514627  0.0413007455612941  0.4916830510911936
  0.8180266161742651  0.2910018063234290  0.3816591546498955
  0.6683441049761072  0.1414464263047890  0.3786199564108585
  0.2065551598088291  0.6972434712921824  0.3816238004032257
  0.3562095784753225  0.8468009735082376  0.3786225455937569
  0.9640879010298136  0.3780124704481551  0.4895813003698777
  0.7178702364532157  0.1848496409398450  0.5981987458499773
  0.8238835982147066  0.2904676991095769  0.5975902518228011
  0.3069269713659182  0.8029784354398259  0.5982535840514771
  0.2007354888184807  0.6975866752961224  0.5975810468297169
  0.3461228140622268  0.5895634477045775  0.4882510216818474
  0.5808958149542889  0.6097253892278758  0.4919246658096128
  0.4167143489238185  0.7320016984774540  0.4884361372975974
  0.2741819500670815  0.6598524630625775  0.4886134582387882
  0.0593471640531220  0.4251268653362317  0.4919570632829888
  0.5216970506745326  0.7997919396444502  0.3817200766599811
  0.5212481430609728  0.6499967846995816  0.3786974689676654
  0.3086240682523069  0.4847026645404995  0.3814968915562247
  0.1591197494093493  0.4848207893229599  0.3789266206482864
  0.3959874272887447  0.4256703215515785  0.4889146247139280
  0.5804585962217743  0.9458701128788505  0.4890955479100754
  0.5267071128464167  0.6992180730666107  0.5983174006198411
  0.5275032789515421  0.8053923830564216  0.5976836594283412
  0.2031332802004115  0.4789273865445409  0.5983926426631783
  0.3084899645529546  0.4781680495966611  0.5974133535512749
  0.5299166141294052  0.3704899299225417  0.4908634153925959
  0.4967604380096091  0.4059130875204175  0.4906889075191074
  0.4999345094319239  0.2975694223359682  0.4914700774812104
  0.4957102112457576  0.2656199599927760  0.4304332129731776
  0.7397594421041163  0.5083262336182912  0.4293571063681370
  0.5301834876498575  0.4752947115565078  0.4900197049646735
  0.5994993956066850  0.5081420091442652  0.4894417255612069
  0.6345322026252518  0.4746821437682911  0.4893367434577343
  0.5994026042210763  0.4052550706576881  0.4897603098039269
  0.4951563030661390  0.2640731725332373  0.5510120712488344
  0.7074816512317952  0.5044993290572393  0.4895433570299446
  0.7402703703988109  0.5111413486388727  0.5504015093510759
  0.8712736786472988  0.4763646781658437  0.4904822803104878
  0.9398641025163528  0.5094827811501617  0.4905740247378034
  0.4972805117880839  0.2068296504781344  0.4296172452421771
  0.8282921400648959  0.5062980127657468  0.4909617633642327
  0.8002280598946427  0.5101272138251218  0.4299797650579649
  0.4978450655280326  0.0668180670025507  0.4894246827798909
  0.5312337877206517  0.1353226036092963  0.4892926569558398
  0.6006544563503198  0.1697137928667516  0.4895633677714955
  0.8365177537799013  0.4068668968372862  0.4894750155489831
  0.5013687170970087  0.1784040285476820  0.4897111701409784
  0.4951765092603537  0.2046669633269786  0.5506938358117992
  0.7997972917258096  0.5113556279768119  0.5505465144064061
  0.6354735966180982  0.1350598813840520  0.4906690824188686
  0.6001179177685501  0.0664665168252299  0.4905805160225967
  0.4246852469174627  0.9213553294690726  0.4905651938754190
  0.3892877112533526  0.8527581126435493  0.4907627455136208
  0.7083795786803293  0.1781061649989795  0.4912099438363526
  0.7401638618773134  0.2061581317012724  0.4301826821931414
  0.7989625449127473  0.2665218039594350  0.4295127903066813
  0.3163799291782681  0.8098235622962306  0.4912582471605731
  0.2845232300415930  0.7819089515082780  0.4302236365967076
  0.2256524434019909  0.7216228368275708  0.4295159160658031
  0.5307460749434512  0.0304036194548019  0.4899540791460382
  0.4940565825859693  0.9573863171465717  0.4899734518361853
  0.9757677620873650  0.4760076122843415  0.4901832338307912
  0.9392473344790986  0.4066878067914388  0.4897446711202988
  0.8707590557061735  0.3716957071455127  0.4894128585207440
  0.0487626959143270  0.5121363408040907  0.4902310516104436
  0.1537964817611908  0.6164346526190769  0.4894708559446030
  0.0852990587532574  0.5814536953355045  0.4896106807207943
  0.8275364105701470  0.2987486966961939  0.4896976020346600
  0.8013854295251548  0.2660234141050850  0.5505861630906566
  0.7419913355577208  0.2065530629817474  0.5507808159153953
  0.1970472535883303  0.6893797952005443  0.4896819140266118
  0.2232369921572968  0.7220539684240279  0.5505888469812561
  0.2827357177273839  0.7814126025994312  0.5508206128252198
  0.5273676399426819  0.5814410628511908  0.4907003130439236
  0.4942298316164724  0.6168856616923009  0.4907605018894401
  0.0846606267211243  0.4786637448362825  0.4908801040889159
  0.1532489438658686  0.5117596355911331  0.4910040837208101
  0.5242354709905328  0.6898269871219398  0.4913337531513093
  0.5283011764301548  0.7217639892581289  0.4303141078030635
  0.5269479383332651  0.7806692271131368  0.4296085704556134
  0.1961440237458874  0.4817309667075520  0.4914182709471930
  0.2239943934025064  0.4778526640836773  0.4303070187022229
  0.2843087979952799  0.4793359539894411  0.4294445994863025
  0.4939473395697149  0.5120524015250254  0.4899915985686008
  0.4247473782973756  0.5820951917361086  0.4896018963116688
  0.3895968991198444  0.5126572225550490  0.4892226029827214
  0.4246267873654048  0.4791966965187058  0.4893527681936618
  0.4240827683228616  0.8180758651902948  0.4898096803442513
  0.4935088389650488  0.8524484469972222  0.4894550479884074
  0.5269393152442987  0.9209531898677810  0.4894915102128508
  0.1880305359440584  0.5812538702107588  0.4898890925936286
  0.5232419291546009  0.8092428337908046  0.4897595033088820
  0.5295566409429924  0.7829583509644920  0.5506764370068211
  0.5293694166246894  0.7234379525630672  0.5508967767729658
  0.3166446893584691  0.4829085239473301  0.4895247030371550
  0.2840117532734610  0.4763184312860815  0.5504770992881802
  0.2246583752133304  0.4764458060885062  0.5508784340692330
  0.4976158761572620  0.2941045311625743  0.3702612143571145
  0.6301349382224686  0.3688557283163192  0.4893860973984658
  0.8266558753372664  0.5082201113202061  0.3697103104226613
  0.6370317463799324  0.2368557083086884  0.4891073176338736
  0.7693935834739563  0.3761321379801643  0.4889797889686847
  0.7115806743989097  0.1798144314862569  0.3699677258181069
  0.3130877813754367  0.8082523181138015  0.3700112315154414
  0.5260821056125806  0.6932272305655118  0.3700873281263384
  0.1975213875156712  0.4800481126407590  0.3701596540478249
  0.3940321768703257  0.6184871029297412  0.4892107810413222
  0.3877488304266592  0.7509316104429615  0.4895213186849929
  0.2551498966896304  0.6119332407943503  0.4895011859790870
 
  0.00000000E+00  0.00000000E+00  0.00000000E+00
  0.00000000E+00  0.00000000E+00  0.00000000E+00
  0.00000000E+00  0.00000000E+00  0.00000000E+00
  0.00000000E+00  0.00000000E+00  0.00000000E+00
  0.00000000E+00  0.00000000E+00  0.00000000E+00
  0.00000000E+00  0.00000000E+00  0.00000000E+00
  0.00000000E+00  0.00000000E+00  0.00000000E+00
  0.00000000E+00  0.00000000E+00  0.00000000E+00
  0.00000000E+00  0.00000000E+00  0.00000000E+00
  0.00000000E+00  0.00000000E+00  0.00000000E+00
  0.00000000E+00  0.00000000E+00  0.00000000E+00
  0.00000000E+00  0.00000000E+00  0.00000000E+00
  0.00000000E+00  0.00000000E+00  0.00000000E+00
  0.00000000E+00  0.00000000E+00  0.00000000E+00
  0.00000000E+00  0.00000000E+00  0.00000000E+00
  0.00000000E+00  0.00000000E+00  0.00000000E+00
  0.00000000E+00  0.00000000E+00  0.00000000E+00
  0.00000000E+00  0.00000000E+00  0.00000000E+00
  0.00000000E+00  0.00000000E+00  0.00000000E+00
  0.00000000E+00  0.00000000E+00  0.00000000E+00
  0.00000000E+00  0.00000000E+00  0.00000000E+00
  0.00000000E+00  0.00000000E+00  0.00000000E+00
  0.00000000E+00  0.00000000E+00  0.00000000E+00
  0.00000000E+00  0.00000000E+00  0.00000000E+00
  0.00000000E+00  0.00000000E+00  0.00000000E+00
  0.00000000E+00  0.00000000E+00  0.00000000E+00
  0.00000000E+00  0.00000000E+00  0.00000000E+00
  0.00000000E+00  0.00000000E+00  0.00000000E+00
  0.00000000E+00  0.00000000E+00  0.00000000E+00
  0.00000000E+00  0.00000000E+00  0.00000000E+00
  0.00000000E+00  0.00000000E+00  0.00000000E+00
  0.00000000E+00  0.00000000E+00  0.00000000E+00
  0.00000000E+00  0.00000000E+00  0.00000000E+00
  0.00000000E+00  0.00000000E+00  0.00000000E+00
  0.00000000E+00  0.00000000E+00  0.00000000E+00
  0.00000000E+00  0.00000000E+00  0.00000000E+00
  0.00000000E+00  0.00000000E+00  0.00000000E+00
  0.00000000E+00  0.00000000E+00  0.00000000E+00
  0.00000000E+00  0.00000000E+00  0.00000000E+00
  0.00000000E+00  0.00000000E+00  0.00000000E+00
  0.00000000E+00  0.00000000E+00  0.00000000E+00
  0.00000000E+00  0.00000000E+00  0.00000000E+00
  0.00000000E+00  0.00000000E+00  0.00000000E+00
  0.00000000E+00  0.00000000E+00  0.00000000E+00
  0.00000000E+00  0.00000000E+00  0.00000000E+00
  0.00000000E+00  0.00000000E+00  0.00000000E+00
  0.00000000E+00  0.00000000E+00  0.00000000E+00
  0.00000000E+00  0.00000000E+00  0.00000000E+00
  0.00000000E+00  0.00000000E+00  0.00000000E+00
  0.00000000E+00  0.00000000E+00  0.00000000E+00
  0.00000000E+00  0.00000000E+00  0.00000000E+00
  0.00000000E+00  0.00000000E+00  0.00000000E+00
  0.00000000E+00  0.00000000E+00  0.00000000E+00
  0.00000000E+00  0.00000000E+00  0.00000000E+00
  0.00000000E+00  0.00000000E+00  0.00000000E+00
  0.00000000E+00  0.00000000E+00  0.00000000E+00
  0.00000000E+00  0.00000000E+00  0.00000000E+00
  0.00000000E+00  0.00000000E+00  0.00000000E+00
  0.00000000E+00  0.00000000E+00  0.00000000E+00
  0.00000000E+00  0.00000000E+00  0.00000000E+00
  0.00000000E+00  0.00000000E+00  0.00000000E+00
  0.00000000E+00  0.00000000E+00  0.00000000E+00
  0.00000000E+00  0.00000000E+00  0.00000000E+00
  0.00000000E+00  0.00000000E+00  0.00000000E+00
  0.00000000E+00  0.00000000E+00  0.00000000E+00
  0.00000000E+00  0.00000000E+00  0.00000000E+00
  0.00000000E+00  0.00000000E+00  0.00000000E+00
  0.00000000E+00  0.00000000E+00  0.00000000E+00
  0.00000000E+00  0.00000000E+00  0.00000000E+00
  0.00000000E+00  0.00000000E+00  0.00000000E+00
  0.00000000E+00  0.00000000E+00  0.00000000E+00
  0.00000000E+00  0.00000000E+00  0.00000000E+00
  0.00000000E+00  0.00000000E+00  0.00000000E+00
  0.00000000E+00  0.00000000E+00  0.00000000E+00
  0.00000000E+00  0.00000000E+00  0.00000000E+00
  0.00000000E+00  0.00000000E+00  0.00000000E+00
  0.00000000E+00  0.00000000E+00  0.00000000E+00
  0.00000000E+00  0.00000000E+00  0.00000000E+00
  0.00000000E+00  0.00000000E+00  0.00000000E+00
  0.00000000E+00  0.00000000E+00  0.00000000E+00
  0.00000000E+00  0.00000000E+00  0.00000000E+00
  0.00000000E+00  0.00000000E+00  0.00000000E+00
  0.00000000E+00  0.00000000E+00  0.00000000E+00
  0.00000000E+00  0.00000000E+00  0.00000000E+00
  0.00000000E+00  0.00000000E+00  0.00000000E+00
  0.00000000E+00  0.00000000E+00  0.00000000E+00
  0.00000000E+00  0.00000000E+00  0.00000000E+00
  0.00000000E+00  0.00000000E+00  0.00000000E+00
  0.00000000E+00  0.00000000E+00  0.00000000E+00
  0.00000000E+00  0.00000000E+00  0.00000000E+00
  0.00000000E+00  0.00000000E+00  0.00000000E+00
  0.00000000E+00  0.00000000E+00  0.00000000E+00
  0.00000000E+00  0.00000000E+00  0.00000000E+00
  0.00000000E+00  0.00000000E+00  0.00000000E+00
  0.00000000E+00  0.00000000E+00  0.00000000E+00
  0.00000000E+00  0.00000000E+00  0.00000000E+00
  0.00000000E+00  0.00000000E+00  0.00000000E+00
  0.00000000E+00  0.00000000E+00  0.00000000E+00
  0.00000000E+00  0.00000000E+00  0.00000000E+00
  0.00000000E+00  0.00000000E+00  0.00000000E+00
  0.00000000E+00  0.00000000E+00  0.00000000E+00
  0.00000000E+00  0.00000000E+00  0.00000000E+00
  0.00000000E+00  0.00000000E+00  0.00000000E+00
  0.00000000E+00  0.00000000E+00  0.00000000E+00
  0.00000000E+00  0.00000000E+00  0.00000000E+00
  0.00000000E+00  0.00000000E+00  0.00000000E+00
  0.00000000E+00  0.00000000E+00  0.00000000E+00
  0.00000000E+00  0.00000000E+00  0.00000000E+00
  0.00000000E+00  0.00000000E+00  0.00000000E+00
  0.00000000E+00  0.00000000E+00  0.00000000E+00
  0.00000000E+00  0.00000000E+00  0.00000000E+00
  0.00000000E+00  0.00000000E+00  0.00000000E+00
  0.00000000E+00  0.00000000E+00  0.00000000E+00
  0.00000000E+00  0.00000000E+00  0.00000000E+00
  0.00000000E+00  0.00000000E+00  0.00000000E+00
  0.00000000E+00  0.00000000E+00  0.00000000E+00
  0.00000000E+00  0.00000000E+00  0.00000000E+00
  0.00000000E+00  0.00000000E+00  0.00000000E+00
  0.00000000E+00  0.00000000E+00  0.00000000E+00
  0.00000000E+00  0.00000000E+00  0.00000000E+00
  0.00000000E+00  0.00000000E+00  0.00000000E+00
  0.00000000E+00  0.00000000E+00  0.00000000E+00
  0.00000000E+00  0.00000000E+00  0.00000000E+00
  0.00000000E+00  0.00000000E+00  0.00000000E+00
  0.00000000E+00  0.00000000E+00  0.00000000E+00
  0.00000000E+00  0.00000000E+00  0.00000000E+00
