Primitive Cell                          
   1.00000000000000     
    24.4776781657564371    0.0631741917075603    0.0000000000000000
     0.0469759846043493   24.6093286119965384    0.0000000000000000
     0.0000000000000000    0.0000000000000000   20.0000000000000000
   C    H    N    O 
    56    40    14     4
Direct
  0.8382108092516631  0.9290644840943187  0.4934834521835612
  0.8687394220654596  0.8822450874814791  0.4980579105660397
  0.9249548732820898  0.8972446346287271  0.5059256877346456
  0.8746356832185924  0.9744021072993192  0.4985020251984693
  0.8605822190828007  0.0297733987253253  0.4937295889325952
  0.8979434114416236  0.0734129460534163  0.4932044341143680
  0.9727129477320844  0.1212463252689702  0.4935110806836533
  0.9276398105537069  0.1600483455219148  0.4890312599327231
  0.8810076034891097  0.1302748323770402  0.4896313965758168
  0.0281351138736454  0.1369765621521424  0.4944128277071513
  0.0732131693927869  0.1014239788518836  0.4980208473204613
  0.1235797488487407  0.0243108529891032  0.5049054056717637
  0.1600395022592593  0.0696266281135962  0.5093817468799529
  0.1294800866492380  0.1164372140938852  0.5051949218929437
  0.1377158052048060  0.9689632022688741  0.5094053319239720
  0.1003607536873190  0.9253922360028071  0.5107942941509265
  0.0255324218368216  0.8776309630801649  0.5109501547320932
  0.0706358384762922  0.8388558457086290  0.5157020070932035
  0.1172907628602573  0.8685946558761231  0.5147545814248460
  0.9701004629895706  0.8617873844789585  0.5096138057461204
  0.9577711633491148  0.8025137715459039  0.5111695480403071
  0.9294032344580643  0.7795488554517362  0.5650963353099812
  0.9185443127798791  0.7238847385493941  0.5667995428166108
  0.9357518801884908  0.6897447351691000  0.5148469054801623
  0.1972526911663053  0.9564126867018246  0.5136096131382502
  0.2198530712771785  0.9321245895669961  0.5708098023603583
  0.2757486602352301  0.9208028154501875  0.5743203172241138
  0.3105495422798725  0.9336697871563473  0.5211190547017779
  0.0413109234985072  0.1960417248041537  0.4919225830252785
  0.0688832980038896  0.3075173865644985  0.4877986522958722
  0.0399845240579282  0.2860678160092718  0.5421844831521767
  0.0264882645462521  0.2311292177030992  0.5443897388351431
  0.8012522924075540  0.0427578444403451  0.4873049876190336
  0.7645036507525944  0.0310400902716665  0.5393119972122733
  0.7092039032743145  0.0439505191278258  0.5333818226573968
  0.6889877549966315  0.0690603742715936  0.4754658548569353
  0.3712858286649023  0.9234237666466925  0.5257345737972088
  0.9260324516227385  0.6292706515910496  0.5176461877337672
  0.6288878117339110  0.0820857824395276  0.4685584856152900
  0.0820733851299167  0.3673285957251693  0.4845993095396253
  0.4783795497800725  0.0339583757912081  0.5417424790051726
  0.4500574454044468  0.9872168777325356  0.5178093376056268
  0.0349301450437807  0.5212066459263411  0.5452161044458990
  0.9893832134748521  0.5496803192461641  0.5173036992277460
  0.9637609850096425  0.7127038797070853  0.4606497997943251
  0.9744676064120341  0.7682115679262509  0.4586732833614846
  0.2880315675498366  0.9579228050571160  0.4638926462556867
  0.2322715576536751  0.9690193424280054  0.4601015612419062
  0.0699811921473028  0.2176820088242835  0.4373530881557741
  0.0836205424778100  0.2726568496302733  0.4354415443241137
  0.7808012404542879  0.0674547541637835  0.4291329501472347
  0.7254547096794326  0.0804971606649971  0.4234550778496455
  0.5495408387316161  0.0189184792675405  0.4680554140336639
  0.5201574787510808  0.9728389619339382  0.4440624685600980
  0.0207480201059553  0.4480171167980131  0.4750632583678041
  0.9761456676334674  0.4776938160527209  0.4467187480361048
  0.6813215897623266  0.0348111665591162  0.5744752856866455
  0.7798789662653718  0.0123022700137767  0.5850823015986748
  0.7944651087153360  0.9324213016558431  0.4858482237694517
  0.8542416487157993  0.8407576056953587  0.4948219461343371
  0.9612228227470823  0.9757769536227698  0.5087021359438211
  0.0369419940665026  0.0228836608746334  0.4956054580465334
  0.8392389900275106  0.1451764833121061  0.4879671224162649
  0.9313408347800944  0.2038947194072804  0.4856194705831030
  0.0046674907204078  0.2147531844019497  0.5874222751600584
  0.0281956443062228  0.3127304178588446  0.5834413973490626
  0.1439955077794011  0.1579290383620418  0.5081075079665567
  0.2038613584049074  0.0662446471443303  0.5162267674122276
  0.0669774192240951  0.7950227837861590  0.5192692655465052
  0.1590726444335431  0.8537040237876781  0.5162889835784412
  0.1932640773561474  0.9223182530910918  0.6128520024804445
  0.2925677650881724  0.9016614691610201  0.6191764992836681
  0.8963858460934020  0.7067467758095844  0.6092242332852535
  0.9162352025787044  0.8056136495610033  0.6062389893865188
  0.3798554797307432  0.8909290753124495  0.5624570484308862
  0.8914105413757696  0.6202034266660306  0.5512690219814189
  0.6111545340217219  0.0945939253680521  0.5165715619700819
  0.0905448398768343  0.3838534000690572  0.5344857156402441
  0.4608423425443036  0.0592030461093032  0.5815674704118550
  0.3859024781909213  0.9946902763861658  0.5829592102180428
  0.0594218682940379  0.5395368205599880  0.5851116183210507
  0.9948674717193100  0.6151461602599682  0.5800882725652627
  0.7103818652235390  0.0998843742352804  0.3778587962455546
  0.8087387831849497  0.0764309696740355  0.3881396849290155
  0.0814678513316380  0.1909889480447333  0.3960817667303544
  0.1059657953246571  0.2887211405522976  0.3925386411942426
  0.2151218025185102  0.9872490486967251  0.4149711903174094
  0.3145846485954209  0.9678503355298389  0.4217840886010151
  0.9958164211343714  0.7856810574813622  0.4159460139028752
  0.9770276216067586  0.6866567470765332  0.4194713971319928
  0.3879691402952119  0.9098348396003857  0.4775361025395952
  0.9153657602728700  0.6131209565732689  0.4681476542347127
  0.6231114855439230  0.1161589443578563  0.4333020684850410
  0.1190505679127156  0.3738141909191910  0.4540082549505655
  0.6143145454385106  0.0105402838496502  0.4079056299477060
  0.0132535074612861  0.3813631538623312  0.4184586572656315
  0.9264230890314309  0.9531687665144304  0.5061833455706193
  0.9537436587157586  0.0689253530942011  0.4959449416965143
  0.0717345893110632  0.0455151147329929  0.4980216276200196
  0.0445335614066025  0.9299221470841843  0.5082890383045466
  0.5260003276458960  0.0489676101521610  0.5177736025809665
  0.4001293602130431  0.9731310212817093  0.5434520397386606
  0.0497658332247184  0.4725180503875777  0.5248483344816322
  0.9753527394230872  0.6007030445628061  0.5391719502136212
  0.4721703623429150  0.9577783383424361  0.4690393438288254
  0.5405230495693445  0.9388050358191862  0.3896321724742577
  0.5989855983100156  0.0346323045017414  0.4451863211424509
  0.9611471722459584  0.5267001517169732  0.4681790383647098
  0.9437046540143328  0.4565046423834715  0.3913572144816655
  0.0360460685217703  0.3973732607425688  0.4564480469783518
  0.5121592948927400  0.9007820637296291  0.3692154262984033
  0.5869254526869625  0.9503002804448002  0.3655865628863992
  0.9071621395094667  0.4851572629394525  0.3669491636120057
  0.9551109353433986  0.4091566308772343  0.3706759377950206
 
  0.00000000E+00  0.00000000E+00  0.00000000E+00
  0.00000000E+00  0.00000000E+00  0.00000000E+00
  0.00000000E+00  0.00000000E+00  0.00000000E+00
  0.00000000E+00  0.00000000E+00  0.00000000E+00
  0.00000000E+00  0.00000000E+00  0.00000000E+00
  0.00000000E+00  0.00000000E+00  0.00000000E+00
  0.00000000E+00  0.00000000E+00  0.00000000E+00
  0.00000000E+00  0.00000000E+00  0.00000000E+00
  0.00000000E+00  0.00000000E+00  0.00000000E+00
  0.00000000E+00  0.00000000E+00  0.00000000E+00
  0.00000000E+00  0.00000000E+00  0.00000000E+00
  0.00000000E+00  0.00000000E+00  0.00000000E+00
  0.00000000E+00  0.00000000E+00  0.00000000E+00
  0.00000000E+00  0.00000000E+00  0.00000000E+00
  0.00000000E+00  0.00000000E+00  0.00000000E+00
  0.00000000E+00  0.00000000E+00  0.00000000E+00
  0.00000000E+00  0.00000000E+00  0.00000000E+00
  0.00000000E+00  0.00000000E+00  0.00000000E+00
  0.00000000E+00  0.00000000E+00  0.00000000E+00
  0.00000000E+00  0.00000000E+00  0.00000000E+00
  0.00000000E+00  0.00000000E+00  0.00000000E+00
  0.00000000E+00  0.00000000E+00  0.00000000E+00
  0.00000000E+00  0.00000000E+00  0.00000000E+00
  0.00000000E+00  0.00000000E+00  0.00000000E+00
  0.00000000E+00  0.00000000E+00  0.00000000E+00
  0.00000000E+00  0.00000000E+00  0.00000000E+00
  0.00000000E+00  0.00000000E+00  0.00000000E+00
  0.00000000E+00  0.00000000E+00  0.00000000E+00
  0.00000000E+00  0.00000000E+00  0.00000000E+00
  0.00000000E+00  0.00000000E+00  0.00000000E+00
  0.00000000E+00  0.00000000E+00  0.00000000E+00
  0.00000000E+00  0.00000000E+00  0.00000000E+00
  0.00000000E+00  0.00000000E+00  0.00000000E+00
  0.00000000E+00  0.00000000E+00  0.00000000E+00
  0.00000000E+00  0.00000000E+00  0.00000000E+00
  0.00000000E+00  0.00000000E+00  0.00000000E+00
  0.00000000E+00  0.00000000E+00  0.00000000E+00
  0.00000000E+00  0.00000000E+00  0.00000000E+00
  0.00000000E+00  0.00000000E+00  0.00000000E+00
  0.00000000E+00  0.00000000E+00  0.00000000E+00
  0.00000000E+00  0.00000000E+00  0.00000000E+00
  0.00000000E+00  0.00000000E+00  0.00000000E+00
  0.00000000E+00  0.00000000E+00  0.00000000E+00
  0.00000000E+00  0.00000000E+00  0.00000000E+00
  0.00000000E+00  0.00000000E+00  0.00000000E+00
  0.00000000E+00  0.00000000E+00  0.00000000E+00
  0.00000000E+00  0.00000000E+00  0.00000000E+00
  0.00000000E+00  0.00000000E+00  0.00000000E+00
  0.00000000E+00  0.00000000E+00  0.00000000E+00
  0.00000000E+00  0.00000000E+00  0.00000000E+00
  0.00000000E+00  0.00000000E+00  0.00000000E+00
  0.00000000E+00  0.00000000E+00  0.00000000E+00
  0.00000000E+00  0.00000000E+00  0.00000000E+00
  0.00000000E+00  0.00000000E+00  0.00000000E+00
  0.00000000E+00  0.00000000E+00  0.00000000E+00
  0.00000000E+00  0.00000000E+00  0.00000000E+00
  0.00000000E+00  0.00000000E+00  0.00000000E+00
  0.00000000E+00  0.00000000E+00  0.00000000E+00
  0.00000000E+00  0.00000000E+00  0.00000000E+00
  0.00000000E+00  0.00000000E+00  0.00000000E+00
  0.00000000E+00  0.00000000E+00  0.00000000E+00
  0.00000000E+00  0.00000000E+00  0.00000000E+00
  0.00000000E+00  0.00000000E+00  0.00000000E+00
  0.00000000E+00  0.00000000E+00  0.00000000E+00
  0.00000000E+00  0.00000000E+00  0.00000000E+00
  0.00000000E+00  0.00000000E+00  0.00000000E+00
  0.00000000E+00  0.00000000E+00  0.00000000E+00
  0.00000000E+00  0.00000000E+00  0.00000000E+00
  0.00000000E+00  0.00000000E+00  0.00000000E+00
  0.00000000E+00  0.00000000E+00  0.00000000E+00
  0.00000000E+00  0.00000000E+00  0.00000000E+00
  0.00000000E+00  0.00000000E+00  0.00000000E+00
  0.00000000E+00  0.00000000E+00  0.00000000E+00
  0.00000000E+00  0.00000000E+00  0.00000000E+00
  0.00000000E+00  0.00000000E+00  0.00000000E+00
  0.00000000E+00  0.00000000E+00  0.00000000E+00
  0.00000000E+00  0.00000000E+00  0.00000000E+00
  0.00000000E+00  0.00000000E+00  0.00000000E+00
  0.00000000E+00  0.00000000E+00  0.00000000E+00
  0.00000000E+00  0.00000000E+00  0.00000000E+00
  0.00000000E+00  0.00000000E+00  0.00000000E+00
  0.00000000E+00  0.00000000E+00  0.00000000E+00
  0.00000000E+00  0.00000000E+00  0.00000000E+00
  0.00000000E+00  0.00000000E+00  0.00000000E+00
  0.00000000E+00  0.00000000E+00  0.00000000E+00
  0.00000000E+00  0.00000000E+00  0.00000000E+00
  0.00000000E+00  0.00000000E+00  0.00000000E+00
  0.00000000E+00  0.00000000E+00  0.00000000E+00
  0.00000000E+00  0.00000000E+00  0.00000000E+00
  0.00000000E+00  0.00000000E+00  0.00000000E+00
  0.00000000E+00  0.00000000E+00  0.00000000E+00
  0.00000000E+00  0.00000000E+00  0.00000000E+00
  0.00000000E+00  0.00000000E+00  0.00000000E+00
  0.00000000E+00  0.00000000E+00  0.00000000E+00
  0.00000000E+00  0.00000000E+00  0.00000000E+00
  0.00000000E+00  0.00000000E+00  0.00000000E+00
  0.00000000E+00  0.00000000E+00  0.00000000E+00
  0.00000000E+00  0.00000000E+00  0.00000000E+00
  0.00000000E+00  0.00000000E+00  0.00000000E+00
  0.00000000E+00  0.00000000E+00  0.00000000E+00
  0.00000000E+00  0.00000000E+00  0.00000000E+00
  0.00000000E+00  0.00000000E+00  0.00000000E+00
  0.00000000E+00  0.00000000E+00  0.00000000E+00
  0.00000000E+00  0.00000000E+00  0.00000000E+00
  0.00000000E+00  0.00000000E+00  0.00000000E+00
  0.00000000E+00  0.00000000E+00  0.00000000E+00
  0.00000000E+00  0.00000000E+00  0.00000000E+00
  0.00000000E+00  0.00000000E+00  0.00000000E+00
  0.00000000E+00  0.00000000E+00  0.00000000E+00
  0.00000000E+00  0.00000000E+00  0.00000000E+00
  0.00000000E+00  0.00000000E+00  0.00000000E+00
  0.00000000E+00  0.00000000E+00  0.00000000E+00
  0.00000000E+00  0.00000000E+00  0.00000000E+00
  0.00000000E+00  0.00000000E+00  0.00000000E+00
