Primitive Cell                          
   1.00000000000000     
    29.7542602286169888   -0.0035028202634319    0.0000000000000000
   -14.8800644472498735   25.7705024058713015    0.0000000000000000
     0.0000000000000000    0.0000000000000000   20.0000000000000000
   N    C    H 
     6    60    36
Direct
  0.0305137926095327  0.5143305572474404  0.4506851654627653
  0.4915803452103020  0.9755614980377771  0.4511211225132925
  0.5175420697925404  0.0274174722467819  0.4510580074732715
  0.4914249070251202  0.5142447714496399  0.4510448818790280
  0.5173674322108397  0.4883387203596143  0.4510445070159719
  0.9786621589359754  0.4883900321735837  0.4506731081601387
  0.0314508610219235  0.5149712256118733  0.5712205341410908
  0.0567209774350346  0.5275601164047217  0.5090612489842528
  0.2828546110743204  0.6406739352682109  0.5023257222605224
  0.3110464567302245  0.6951229048768397  0.5023747858983185
  0.3655073818203931  0.7232910360628608  0.5023328545614660
  0.3917734516110016  0.6951088445261036  0.5023536309036913
  0.3654850137069303  0.6406568596525659  0.5022918282497599
  0.3110277901898115  0.6143984505527698  0.5023459901724863
  0.3944464192533985  0.7811440587425409  0.5027074728085665
  0.3685146014319116  0.8098466886358224  0.5030127826837330
  0.3954091261170376  0.8638846645725948  0.5044519324257806
  0.4497246529432744  0.8917304620960138  0.5055895519459099
  0.4762272003938364  0.8639244398247001  0.5044223926542344
  0.4490952703174926  0.8098776207898553  0.5030095131380605
  0.2249907847360006  0.6117529633046814  0.5026728217496981
  0.1962565393716957  0.6376530156506490  0.5029911043244510
  0.1422061878045113  0.6107429197803356  0.5042733471643714
  0.1143820610936714  0.5564320121760531  0.5052317460940401
  0.1422205043219549  0.5299679057711657  0.5041980373452901
  0.1962673372866703  0.5571167954452463  0.5029311201559850
  0.3944044527758024  0.6117237862584801  0.5026078364403901
  0.3684752224789136  0.5570855451693646  0.5028777660035075
  0.3953635306609442  0.5299353362766936  0.5042478649970334
  0.4496807620910062  0.5564072661719095  0.5054042354974939
  0.4761783572560248  0.6107211564692676  0.5042925422919282
  0.4490505467251893  0.6376323696324420  0.5029090156779858
  0.7263338405597821  0.3624246918837457  0.5023018388216087
  0.6981649255404108  0.3079736879216739  0.5022783102110751
  0.6437090621711974  0.2797811083908073  0.5022740444602221
  0.6174260199062331  0.3079476456945329  0.5023836210882138
  0.6436916325623514  0.3623992756963759  0.5023733473044913
  0.6981513016362157  0.3886895126350964  0.5023962917491218
  0.6147882809461365  0.2219231141284084  0.5026099500255157
  0.6407023245347006  0.1932016720619814  0.5029599701525527
  0.6137983907438382  0.1391546288566090  0.5043397181682607
  0.5594804372708069  0.1113132244640482  0.5053995530224782
  0.5329957876547695  0.1391351827570801  0.5042196407059336
  0.5601395406066487  0.1931795124804765  0.5028281385327702
  0.7841987595234130  0.3913546895256417  0.5026457441321526
  0.8129036825115463  0.3654271796147199  0.5029666233320143
  0.8669502251837500  0.3923119448557486  0.5042595854607796
  0.8948054304868975  0.4466196475887543  0.5052215955454642
  0.8669973600102949  0.4731212974974781  0.5041887764526720
  0.8129438122069317  0.4459935697104953  0.5029083487585169
  0.6147548547559580  0.3913148476913051  0.5027500019729700
  0.6406772799524632  0.4459521811874652  0.5030255975470581
  0.6137730854863648  0.4730843682212083  0.5044118692746480
  0.5594566720920753  0.4465990599781904  0.5055130257602869
  0.5329625611579516  0.3922896521164461  0.5043998964434309
  0.5601087792062387  0.3653952381003691  0.5030455326886312
  0.5306293316715909  0.0536634865418648  0.5093859766168549
  0.5178899059623490  0.0284214513096970  0.5715726868923880
  0.4910737782430061  0.9747184952290482  0.5716310365761359
  0.4784980059567232  0.9493899751082466  0.5095050937202004
  0.5306399067006069  0.4754325289966488  0.5094184628347662
  0.5181571858596428  0.4882582548532142  0.5715623339460834
  0.4913046917861479  0.5151123447234411  0.5715497526916948
  0.4784953832483794  0.5275617642014083  0.5093752867119719
  0.9524648991277616  0.4754017148732146  0.5090501190679504
  0.9777453075020333  0.4881046669308589  0.5712074934977522
  0.0538743964174841  0.5262179089348749  0.6174895443464408
  0.1213288559847214  0.6322112202921417  0.5044243665044803
  0.2159604464383591  0.6798782498819023  0.5022406914861790
  0.1213341436870863  0.4876211191142730  0.5042946985882395
  0.2159676074126011  0.5345962924580121  0.5021337483113797
  0.3262442065103457  0.5345607163481532  0.5019969766569190
  0.3738798569599737  0.4875857122431171  0.5043082907941141
  0.4715889148214387  0.6798584018288949  0.5020505422904549
  0.5185317611096920  0.6321832588891496  0.5043685213250768
  0.4716272826459900  0.7901825130591291  0.5021340511243579
  0.5185839880953225  0.8848224721850499  0.5044864137775491
  0.3739285411901818  0.8847485122325551  0.5045508700168497
  0.3262823533396997  0.7901360519745992  0.5021189636829888
  0.2899823979746188  0.7161982663878774  0.5025672186410901
  0.2899442604545825  0.5722604253597581  0.5025069460905840
  0.4339219667798915  0.7161722576398688  0.5025258416438732
  0.8878065442781846  0.3708237042585694  0.5044307965308263
  0.7931760575099531  0.3232010120726656  0.5022087541708302
  0.8878954121519627  0.5154709104173207  0.5042784897548600
  0.7932498075920122  0.4685232900506122  0.5020999664399497
  0.6829089134627324  0.4684824115129445  0.5021440455560864
  0.6352442884414984  0.5154315585096541  0.5045026505048824
  0.5375818727733304  0.3231694037741306  0.5022049353317826
  0.4906030202888445  0.3708190582858037  0.5044869220196802
  0.5376055007172056  0.2128685021622516  0.5019104756881205
  0.4906391538215118  0.1182467800408702  0.5042538123579305
  0.6352898096256183  0.1183001267184380  0.5044805185948320
  0.6829374456338755  0.2129119177389072  0.5021775897091842
  0.7192528687638315  0.2869221149151286  0.5023489360745614
  0.7192230355337230  0.4308309647639135  0.5026291685803344
  0.5752778713520641  0.2868745160595552  0.5026212210834160
  0.4798086773334447  0.9523304693351164  0.6179232091893212
  0.5290097660054016  0.0508640772988400  0.6178096912447799
  0.4802010473613905  0.5264221325908451  0.6178187519555394
  0.5294748195585370  0.4771691988539501  0.6178430294976849
  0.9553188587744472  0.4769284247462480  0.6174710334337092
 
  0.00000000E+00  0.00000000E+00  0.00000000E+00
  0.00000000E+00  0.00000000E+00  0.00000000E+00
  0.00000000E+00  0.00000000E+00  0.00000000E+00
  0.00000000E+00  0.00000000E+00  0.00000000E+00
  0.00000000E+00  0.00000000E+00  0.00000000E+00
  0.00000000E+00  0.00000000E+00  0.00000000E+00
  0.00000000E+00  0.00000000E+00  0.00000000E+00
  0.00000000E+00  0.00000000E+00  0.00000000E+00
  0.00000000E+00  0.00000000E+00  0.00000000E+00
  0.00000000E+00  0.00000000E+00  0.00000000E+00
  0.00000000E+00  0.00000000E+00  0.00000000E+00
  0.00000000E+00  0.00000000E+00  0.00000000E+00
  0.00000000E+00  0.00000000E+00  0.00000000E+00
  0.00000000E+00  0.00000000E+00  0.00000000E+00
  0.00000000E+00  0.00000000E+00  0.00000000E+00
  0.00000000E+00  0.00000000E+00  0.00000000E+00
  0.00000000E+00  0.00000000E+00  0.00000000E+00
  0.00000000E+00  0.00000000E+00  0.00000000E+00
  0.00000000E+00  0.00000000E+00  0.00000000E+00
  0.00000000E+00  0.00000000E+00  0.00000000E+00
  0.00000000E+00  0.00000000E+00  0.00000000E+00
  0.00000000E+00  0.00000000E+00  0.00000000E+00
  0.00000000E+00  0.00000000E+00  0.00000000E+00
  0.00000000E+00  0.00000000E+00  0.00000000E+00
  0.00000000E+00  0.00000000E+00  0.00000000E+00
  0.00000000E+00  0.00000000E+00  0.00000000E+00
  0.00000000E+00  0.00000000E+00  0.00000000E+00
  0.00000000E+00  0.00000000E+00  0.00000000E+00
  0.00000000E+00  0.00000000E+00  0.00000000E+00
  0.00000000E+00  0.00000000E+00  0.00000000E+00
  0.00000000E+00  0.00000000E+00  0.00000000E+00
  0.00000000E+00  0.00000000E+00  0.00000000E+00
  0.00000000E+00  0.00000000E+00  0.00000000E+00
  0.00000000E+00  0.00000000E+00  0.00000000E+00
  0.00000000E+00  0.00000000E+00  0.00000000E+00
  0.00000000E+00  0.00000000E+00  0.00000000E+00
  0.00000000E+00  0.00000000E+00  0.00000000E+00
  0.00000000E+00  0.00000000E+00  0.00000000E+00
  0.00000000E+00  0.00000000E+00  0.00000000E+00
  0.00000000E+00  0.00000000E+00  0.00000000E+00
  0.00000000E+00  0.00000000E+00  0.00000000E+00
  0.00000000E+00  0.00000000E+00  0.00000000E+00
  0.00000000E+00  0.00000000E+00  0.00000000E+00
  0.00000000E+00  0.00000000E+00  0.00000000E+00
  0.00000000E+00  0.00000000E+00  0.00000000E+00
  0.00000000E+00  0.00000000E+00  0.00000000E+00
  0.00000000E+00  0.00000000E+00  0.00000000E+00
  0.00000000E+00  0.00000000E+00  0.00000000E+00
  0.00000000E+00  0.00000000E+00  0.00000000E+00
  0.00000000E+00  0.00000000E+00  0.00000000E+00
  0.00000000E+00  0.00000000E+00  0.00000000E+00
  0.00000000E+00  0.00000000E+00  0.00000000E+00
  0.00000000E+00  0.00000000E+00  0.00000000E+00
  0.00000000E+00  0.00000000E+00  0.00000000E+00
  0.00000000E+00  0.00000000E+00  0.00000000E+00
  0.00000000E+00  0.00000000E+00  0.00000000E+00
  0.00000000E+00  0.00000000E+00  0.00000000E+00
  0.00000000E+00  0.00000000E+00  0.00000000E+00
  0.00000000E+00  0.00000000E+00  0.00000000E+00
  0.00000000E+00  0.00000000E+00  0.00000000E+00
  0.00000000E+00  0.00000000E+00  0.00000000E+00
  0.00000000E+00  0.00000000E+00  0.00000000E+00
  0.00000000E+00  0.00000000E+00  0.00000000E+00
  0.00000000E+00  0.00000000E+00  0.00000000E+00
  0.00000000E+00  0.00000000E+00  0.00000000E+00
  0.00000000E+00  0.00000000E+00  0.00000000E+00
  0.00000000E+00  0.00000000E+00  0.00000000E+00
  0.00000000E+00  0.00000000E+00  0.00000000E+00
  0.00000000E+00  0.00000000E+00  0.00000000E+00
  0.00000000E+00  0.00000000E+00  0.00000000E+00
  0.00000000E+00  0.00000000E+00  0.00000000E+00
  0.00000000E+00  0.00000000E+00  0.00000000E+00
  0.00000000E+00  0.00000000E+00  0.00000000E+00
  0.00000000E+00  0.00000000E+00  0.00000000E+00
  0.00000000E+00  0.00000000E+00  0.00000000E+00
  0.00000000E+00  0.00000000E+00  0.00000000E+00
  0.00000000E+00  0.00000000E+00  0.00000000E+00
  0.00000000E+00  0.00000000E+00  0.00000000E+00
  0.00000000E+00  0.00000000E+00  0.00000000E+00
  0.00000000E+00  0.00000000E+00  0.00000000E+00
  0.00000000E+00  0.00000000E+00  0.00000000E+00
  0.00000000E+00  0.00000000E+00  0.00000000E+00
  0.00000000E+00  0.00000000E+00  0.00000000E+00
  0.00000000E+00  0.00000000E+00  0.00000000E+00
  0.00000000E+00  0.00000000E+00  0.00000000E+00
  0.00000000E+00  0.00000000E+00  0.00000000E+00
  0.00000000E+00  0.00000000E+00  0.00000000E+00
  0.00000000E+00  0.00000000E+00  0.00000000E+00
  0.00000000E+00  0.00000000E+00  0.00000000E+00
  0.00000000E+00  0.00000000E+00  0.00000000E+00
  0.00000000E+00  0.00000000E+00  0.00000000E+00
  0.00000000E+00  0.00000000E+00  0.00000000E+00
  0.00000000E+00  0.00000000E+00  0.00000000E+00
  0.00000000E+00  0.00000000E+00  0.00000000E+00
  0.00000000E+00  0.00000000E+00  0.00000000E+00
  0.00000000E+00  0.00000000E+00  0.00000000E+00
  0.00000000E+00  0.00000000E+00  0.00000000E+00
  0.00000000E+00  0.00000000E+00  0.00000000E+00
  0.00000000E+00  0.00000000E+00  0.00000000E+00
  0.00000000E+00  0.00000000E+00  0.00000000E+00
  0.00000000E+00  0.00000000E+00  0.00000000E+00
  0.00000000E+00  0.00000000E+00  0.00000000E+00
