Primitive Cell                          
   1.00000000000000     
    29.7363005169149126    0.0427146156319197    0.0000000000000000
   -14.8312867367241754   25.7524797026101524    0.0000000000000000
     0.0000000000000000    0.0000000000000000   20.0000000000000000
   N    O    H    C 
    12    12    30    54
Direct
  0.5867514341051603  0.3940174530420322  0.4964249123030058
  0.8053971089944767  0.4020007083388180  0.4975141395815328
  0.5950674735045780  0.1835810091046781  0.4976636408484296
  0.5561417371819601  0.4997138019200520  0.4759018696340931
  0.5029612071502854  0.5545642164134819  0.4817118877339155
  0.4054100010615045  0.5921642028471510  0.5151374355277625
  0.9415933754463452  0.4330380244632224  0.4756036059574384
  0.0493999998998333  0.4862049797736674  0.4814687977001242
  0.1841520974640929  0.5837081037105847  0.5151320511288375
  0.4895406816482009  0.0477388833818537  0.4763241852752813
  0.4346426499073530  0.9399311557859775  0.4819938829507961
  0.3966751666417991  0.8048292993021846  0.5157054740001286
  0.6660754753300964  0.4512810986141460  0.4498166565138604
  0.7833917423754073  0.3224608090817753  0.4511721797133177
  0.5378233776354975  0.2060035355295255  0.4512921237143814
  0.3250915237354306  0.5366794687179777  0.5601519027788768
  0.2088266935744727  0.6638453750261846  0.5610394190198207
  0.4517754844612938  0.7795644979685292  0.5614387705788175
  0.3707540728117635  0.4149757463653643  0.6192606272317320
  0.4247053271595647  0.3646307992218283  0.6127906456258643
  0.0414203890848270  0.6165880285468788  0.6230158398641237
  0.9374856598748025  0.5626271773657265  0.6165191723815795
  0.5726535250302334  0.9463829743093868  0.6224251056659469
  0.6234293495468108  0.0505237331886832  0.6153727687514063
  0.5686003559262574  0.2983276915718704  0.4684967309050450
  0.7281011268112820  0.4205205274235411  0.4686765770687060
  0.6909769466985551  0.2608035813653657  0.4698416338466203
  0.4226146213186155  0.6887745140887205  0.5370788000184064
  0.2634336349628157  0.5661500299251045  0.5367680729007773
  0.2998045354796375  0.7256053968169667  0.5371314314312627
  0.5009079771534601  0.3655468118512175  0.5634752393581479
  0.3707783695522551  0.4995290068942779  0.5751172486432310
  0.3544803735728692  0.4363976705753387  0.6183867845842244
  0.3921253588398699  0.3564317266413184  0.6347381650652224
  0.5668705951935351  0.3581032286963506  0.5171339410834790
  0.8625199889648059  0.4870118358477384  0.5662750034810031
  0.1260092712545173  0.6175355171537262  0.5769408193222532
  0.0790521277215674  0.6331427130068263  0.6217440842375908
  0.9617403252921122  0.5949368313247660  0.6390450351982793
  0.7893609292190931  0.4218691338250977  0.5184863554414676
  0.6229770861393931  0.1259053805309165  0.5655600389773241
  0.4887023284617129  0.8623252467386422  0.5770624266502438
  0.5515101602872221  0.9087532847100235  0.6208076332996910
  0.6313723582063986  0.0260680197724028  0.6377616283963121
  0.6309918022022885  0.1994073673181944  0.5182733553817940
  0.6173138203466735  0.4907591610628046  0.4437568979371491
  0.4943861936318186  0.6172856287102206  0.4576185043597505
  0.4265872911270350  0.6272155049164141  0.4925727442762309
  0.8717218781512059  0.3721819569094791  0.4428955621237805
  0.1206403292912697  0.4951415651650777  0.4565887292788062
  0.1980899399634666  0.5626826502947040  0.4921040125949503
  0.4987623576609508  0.1179318658216530  0.4440060637474801
  0.3721465211325636  0.8689295434631745  0.4573061923534993
  0.3617955503613857  0.7911908889335209  0.4927402701985955
  0.7153511133860704  0.3414407913087842  0.4726147586088061
  0.6773481125144016  0.2887719416185703  0.4724066726178435
  0.6247133381284584  0.2737579164090036  0.4725608965432571
  0.6100798945091128  0.3118900863374208  0.4716795316746669
  0.7002094140215789  0.3790527274541802  0.4717778048275605
  0.7709759662620215  0.3538506700114539  0.4720021215948123
  0.5815275876431585  0.2181979469946995  0.4720327593211309
  0.2757122626559081  0.6449914865514756  0.5328948241147771
  0.3135209208527741  0.6977786380396793  0.5332970383547746
  0.3661833589804999  0.7130494744657483  0.5331282653689655
  0.3811572937370187  0.6751261825489294  0.5332300408918300
  0.2911260646207765  0.6076205705141362  0.5330377226621223
  0.2201796129614735  0.6321750145432716  0.5377846977205607
  0.4088875197503015  0.7685078028376608  0.5382136792891927
  0.5623967599644004  0.4238432451778351  0.5022271465802106
  0.5112012174018119  0.4798285996102862  0.5104010528129876
  0.4900098383037417  0.4309601826788807  0.5438216784392438
  0.5166687882075749  0.4031919025591151  0.5388351896177141
  0.4833524100924009  0.5083256424755476  0.5132998061134373
  0.4079848444578857  0.5140012786975774  0.5501130221727450
  0.4353286095271471  0.4865784295147790  0.5492180248573320
  0.4161764234142922  0.4380035484181946  0.5829322112563773
  0.4426913627565696  0.4110889192495719  0.5806438481268117
  0.8594909493443978  0.4262849839551137  0.5032611632762496
  0.9664777396190232  0.4775352841889102  0.5110779563797578
  0.9387275077543933  0.4982457465516674  0.5455717528991926
  0.8844174038792261  0.4715852179646731  0.5407562323757276
  0.0227027428903597  0.5054379263596758  0.5139077272306167
  0.1034428156292435  0.5805658887173593  0.5513479594390702
  0.0488004074707291  0.5530865330391705  0.5507027195317065
  0.0192943932457013  0.5716957259918019  0.5855275846286574
  0.9659959304679049  0.5451143630439006  0.5833274392707182
  0.5651808631961615  0.1295032281527497  0.5034308766097837
  0.5091106053464927  0.0225347966630522  0.5113651082533863
  0.5576875086065343  0.0499345757542926  0.5453831482364038
  0.5855296366179985  0.1042611762960703  0.5404894681060384
  0.4805768885680166  0.9662945673055177  0.5142093986611869
  0.4744982610065307  0.8851735810402488  0.5515781518887479
  0.5019336757061765  0.9398412662466811  0.5507887767416051
  0.5501578391558155  0.9689905950833833  0.5852155943968711
  0.5771933414574804  0.0223123944799681  0.5827809668780262
  0.6475444528657519  0.3645180385530509  0.4719685381215655
  0.6348868687952844  0.4076307510882984  0.4708948313644754
  0.3439064960411713  0.6224748848182315  0.5327768374300703
  0.3568251830845099  0.5797423317139732  0.5374111986969510
  0.5811125311277792  0.4733084659044309  0.4717745018184090
  0.4769883085392266  0.5798179677707580  0.4837021306530573
  0.4287897896696791  0.5612704964641395  0.5169986079988007
  0.8903183322957204  0.4080451378682000  0.4716769319036871
  0.1005136800552791  0.5122631703605762  0.4833279726702884
  0.1299895995159801  0.5602024820494549  0.5172791555345526
  0.5159751024174284  0.0990277273120270  0.4723805521452320
  0.4093640623121928  0.8887902645788728  0.4839082590797901
  0.4275746606180491  0.8589700692917788  0.5177505407698533
 
  0.00000000E+00  0.00000000E+00  0.00000000E+00
  0.00000000E+00  0.00000000E+00  0.00000000E+00
  0.00000000E+00  0.00000000E+00  0.00000000E+00
  0.00000000E+00  0.00000000E+00  0.00000000E+00
  0.00000000E+00  0.00000000E+00  0.00000000E+00
  0.00000000E+00  0.00000000E+00  0.00000000E+00
  0.00000000E+00  0.00000000E+00  0.00000000E+00
  0.00000000E+00  0.00000000E+00  0.00000000E+00
  0.00000000E+00  0.00000000E+00  0.00000000E+00
  0.00000000E+00  0.00000000E+00  0.00000000E+00
  0.00000000E+00  0.00000000E+00  0.00000000E+00
  0.00000000E+00  0.00000000E+00  0.00000000E+00
  0.00000000E+00  0.00000000E+00  0.00000000E+00
  0.00000000E+00  0.00000000E+00  0.00000000E+00
  0.00000000E+00  0.00000000E+00  0.00000000E+00
  0.00000000E+00  0.00000000E+00  0.00000000E+00
  0.00000000E+00  0.00000000E+00  0.00000000E+00
  0.00000000E+00  0.00000000E+00  0.00000000E+00
  0.00000000E+00  0.00000000E+00  0.00000000E+00
  0.00000000E+00  0.00000000E+00  0.00000000E+00
  0.00000000E+00  0.00000000E+00  0.00000000E+00
  0.00000000E+00  0.00000000E+00  0.00000000E+00
  0.00000000E+00  0.00000000E+00  0.00000000E+00
  0.00000000E+00  0.00000000E+00  0.00000000E+00
  0.00000000E+00  0.00000000E+00  0.00000000E+00
  0.00000000E+00  0.00000000E+00  0.00000000E+00
  0.00000000E+00  0.00000000E+00  0.00000000E+00
  0.00000000E+00  0.00000000E+00  0.00000000E+00
  0.00000000E+00  0.00000000E+00  0.00000000E+00
  0.00000000E+00  0.00000000E+00  0.00000000E+00
  0.00000000E+00  0.00000000E+00  0.00000000E+00
  0.00000000E+00  0.00000000E+00  0.00000000E+00
  0.00000000E+00  0.00000000E+00  0.00000000E+00
  0.00000000E+00  0.00000000E+00  0.00000000E+00
  0.00000000E+00  0.00000000E+00  0.00000000E+00
  0.00000000E+00  0.00000000E+00  0.00000000E+00
  0.00000000E+00  0.00000000E+00  0.00000000E+00
  0.00000000E+00  0.00000000E+00  0.00000000E+00
  0.00000000E+00  0.00000000E+00  0.00000000E+00
  0.00000000E+00  0.00000000E+00  0.00000000E+00
  0.00000000E+00  0.00000000E+00  0.00000000E+00
  0.00000000E+00  0.00000000E+00  0.00000000E+00
  0.00000000E+00  0.00000000E+00  0.00000000E+00
  0.00000000E+00  0.00000000E+00  0.00000000E+00
  0.00000000E+00  0.00000000E+00  0.00000000E+00
  0.00000000E+00  0.00000000E+00  0.00000000E+00
  0.00000000E+00  0.00000000E+00  0.00000000E+00
  0.00000000E+00  0.00000000E+00  0.00000000E+00
  0.00000000E+00  0.00000000E+00  0.00000000E+00
  0.00000000E+00  0.00000000E+00  0.00000000E+00
  0.00000000E+00  0.00000000E+00  0.00000000E+00
  0.00000000E+00  0.00000000E+00  0.00000000E+00
  0.00000000E+00  0.00000000E+00  0.00000000E+00
  0.00000000E+00  0.00000000E+00  0.00000000E+00
  0.00000000E+00  0.00000000E+00  0.00000000E+00
  0.00000000E+00  0.00000000E+00  0.00000000E+00
  0.00000000E+00  0.00000000E+00  0.00000000E+00
  0.00000000E+00  0.00000000E+00  0.00000000E+00
  0.00000000E+00  0.00000000E+00  0.00000000E+00
  0.00000000E+00  0.00000000E+00  0.00000000E+00
  0.00000000E+00  0.00000000E+00  0.00000000E+00
  0.00000000E+00  0.00000000E+00  0.00000000E+00
  0.00000000E+00  0.00000000E+00  0.00000000E+00
  0.00000000E+00  0.00000000E+00  0.00000000E+00
  0.00000000E+00  0.00000000E+00  0.00000000E+00
  0.00000000E+00  0.00000000E+00  0.00000000E+00
  0.00000000E+00  0.00000000E+00  0.00000000E+00
  0.00000000E+00  0.00000000E+00  0.00000000E+00
  0.00000000E+00  0.00000000E+00  0.00000000E+00
  0.00000000E+00  0.00000000E+00  0.00000000E+00
  0.00000000E+00  0.00000000E+00  0.00000000E+00
  0.00000000E+00  0.00000000E+00  0.00000000E+00
  0.00000000E+00  0.00000000E+00  0.00000000E+00
  0.00000000E+00  0.00000000E+00  0.00000000E+00
  0.00000000E+00  0.00000000E+00  0.00000000E+00
  0.00000000E+00  0.00000000E+00  0.00000000E+00
  0.00000000E+00  0.00000000E+00  0.00000000E+00
  0.00000000E+00  0.00000000E+00  0.00000000E+00
  0.00000000E+00  0.00000000E+00  0.00000000E+00
  0.00000000E+00  0.00000000E+00  0.00000000E+00
  0.00000000E+00  0.00000000E+00  0.00000000E+00
  0.00000000E+00  0.00000000E+00  0.00000000E+00
  0.00000000E+00  0.00000000E+00  0.00000000E+00
  0.00000000E+00  0.00000000E+00  0.00000000E+00
  0.00000000E+00  0.00000000E+00  0.00000000E+00
  0.00000000E+00  0.00000000E+00  0.00000000E+00
  0.00000000E+00  0.00000000E+00  0.00000000E+00
  0.00000000E+00  0.00000000E+00  0.00000000E+00
  0.00000000E+00  0.00000000E+00  0.00000000E+00
  0.00000000E+00  0.00000000E+00  0.00000000E+00
  0.00000000E+00  0.00000000E+00  0.00000000E+00
  0.00000000E+00  0.00000000E+00  0.00000000E+00
  0.00000000E+00  0.00000000E+00  0.00000000E+00
  0.00000000E+00  0.00000000E+00  0.00000000E+00
  0.00000000E+00  0.00000000E+00  0.00000000E+00
  0.00000000E+00  0.00000000E+00  0.00000000E+00
  0.00000000E+00  0.00000000E+00  0.00000000E+00
  0.00000000E+00  0.00000000E+00  0.00000000E+00
  0.00000000E+00  0.00000000E+00  0.00000000E+00
  0.00000000E+00  0.00000000E+00  0.00000000E+00
  0.00000000E+00  0.00000000E+00  0.00000000E+00
  0.00000000E+00  0.00000000E+00  0.00000000E+00
  0.00000000E+00  0.00000000E+00  0.00000000E+00
  0.00000000E+00  0.00000000E+00  0.00000000E+00
  0.00000000E+00  0.00000000E+00  0.00000000E+00
  0.00000000E+00  0.00000000E+00  0.00000000E+00
  0.00000000E+00  0.00000000E+00  0.00000000E+00
  0.00000000E+00  0.00000000E+00  0.00000000E+00
