Primitive Cell                          
   1.00000000000000     
    22.6746287648903184    0.0620084833042103    0.0000000000000000
   -11.2842434346144458   19.3724475729415389    0.0000000000000000
     0.0000000000000000    0.0000000000000000   20.0000000000000000
   O    H    N    C 
    12    30    24    60
Direct
  0.6860268172695996  0.1728275374771115  0.6957647677236665
  0.7939551801401379  0.2047392349765360  0.6770507128220800
  0.8161286500998912  0.5424630718956820  0.6099068698760206
  0.8842261224383989  0.6169209205480470  0.5341179782720502
  0.5564894573704180  0.3469309850832900  0.7183700215273916
  0.4804594131546480  0.3757735555772470  0.6874485591000976
  0.5782327797317350  0.7034667993151018  0.5617629326067899
  0.2941989108228640  0.7659641243814264  0.7071506231389080
  0.3081653845676442  0.8678305134433657  0.6797672835816826
  0.4960953490066160  0.6941687952503344  0.6281515052404458
  0.1428041046781487  0.4634115487050892  0.6699140937977859
  0.1743435496602643  0.3849784796854863  0.6611879621825594
  0.7009431463539642  0.3053160563553448  0.4403242293959124
  0.9183042532564158  0.3712155962349470  0.5256189214160187
  0.9272191522298243  0.5588109375274044  0.4612778939527757
  0.7087894083316328  0.3773010287020711  0.4036983511384520
  0.7491010938916176  0.2325029399780050  0.4066999396214754
  0.6560172006545599  0.4782409803924565  0.3568567434413623
  0.5786279955487785  0.2446781992199192  0.6622763213894913
  0.5314282411356359  0.9452145902462235  0.4973259189562498
  0.6528085015031238  0.3948558418579680  0.5154895334079868
  0.5848979315299658  0.5539617663671592  0.4496427712511135
  0.5870200444607931  0.0428452794474268  0.5225858784916895
  0.6476427803305285  0.2331137109489561  0.6596073167703622
  0.5396101078103186  0.6124008451492031  0.4740545000684762
  0.5846118656977595  0.3292742884593665  0.5525105092595552
  0.3973604546141161  0.1461677732444784  0.5060572223980913
  0.4627904865379833  0.8062244466043964  0.3693722369577941
  0.2127886240710097  0.6393558964227850  0.6315693073125104
  0.3537516102473290  0.7140448722894490  0.4991617265048305
  0.4049163219377476  0.0525681315991307  0.5540341264491673
  0.2879946623774359  0.5800063525871693  0.4375974905124949
  0.3524902970698776  0.4197212515555435  0.5007249470572006
  0.2164933604005910  0.5669648073935249  0.6185936744170490
  0.3503194130244509  0.9477996770926538  0.5599436373394013
  0.2830640987736643  0.7157650706434495  0.5198174571031160
  0.4094514653333121  0.3845122341889677  0.5439574422578914
  0.3595044713003333  0.6471759593314488  0.4071681786209069
  0.2231296302743218  0.4545205862207951  0.3885004935897456
  0.0143497903166576  0.6065048500275481  0.5277612856465694
  0.0247078667954881  0.4235059240053474  0.4879492374333481
  0.1172253606868807  0.7137433156158366  0.4702018806930184
  0.7247043627678877  0.3574684622759960  0.4405069310100984
  0.7842118767789401  0.2723908878921506  0.5676718279058406
  0.7381682186629419  0.1966176986751691  0.6602154478705344
  0.7179449950461603  0.5269842340138950  0.5120135024364174
  0.8298666485134945  0.5665173742228404  0.5530062972168821
  0.6844665079009502  0.1782778064207022  0.4852412616852817
  0.7450454389802204  0.4846304588471071  0.3931780521437958
  0.6059678742735244  0.2280742093068824  0.6354122026614135
  0.6013893456189763  0.3691138710810975  0.5199637391406640
  0.4915876682253355  0.2355737271251357  0.6377652644970055
  0.5098682174801539  0.3420098501004958  0.6823773059727856
  0.4911879549656177  0.7824211107351644  0.5292641853443030
  0.4316595442294471  0.2492094420542728  0.5247022547306557
  0.4682265654604976  0.7219220788920353  0.4052300621351819
  0.2028194274723774  0.6001167384189401  0.5993731349773981
  0.3298315709134556  0.7421189826632286  0.4985225124536896
  0.3390642658228060  0.6106428965521289  0.4435492599632482
  0.1895114580195028  0.7131053726720396  0.6162643048977685
  0.2850379730322103  0.8052481575745389  0.6709475424459583
  0.5266675930276321  0.7072999269107072  0.5744776753806065
  0.2491706848495028  0.4598769812545598  0.5530026289524343
  0.1678442183194946  0.4328505800776909  0.6396837526498089
  0.2148843286437057  0.7864859595553000  0.5001802559336994
  0.1629581441010259  0.4654429782455480  0.4602712089279422
  0.8957725478647802  0.3982046861273929  0.5005190350503241
  0.8274669022814933  0.3597541129442163  0.4818705843791022
  0.7939237398943817  0.3931350908145177  0.4540365863705347
  0.6727678420500069  0.1735608097367844  0.5518210484797734
  0.7854332157282329  0.2869784982424335  0.5027359089045831
  0.7311765809214208  0.2156150108063031  0.5908750315491673
  0.7887320361067367  0.4998997884600058  0.4443146350343667
  0.6696547837394249  0.5004531218406569  0.4642704121617669
  0.7771739423215749  0.5315942366896991  0.5003248532443934
  0.9345279456357716  0.4697176848351461  0.4906043179180486
  0.8309376727460602  0.4666167170112416  0.4504154785209451
  0.9002355953218100  0.5029349891747330  0.4664172951464209
  0.7402892923101376  0.2318230510591803  0.4605180430754601
  0.6887501548659287  0.4890990541575420  0.4005450947782307
  0.4390204287265718  0.8493413737628401  0.4958451222619686
  0.4766445828008656  0.9201729853641396  0.5056463062488419
  0.4593865658512755  0.0730620971638629  0.5612928880556112
  0.4974160141771904  0.1395225076331457  0.5879102213815131
  0.5684590313573921  0.1672610447957794  0.6018916871755593
  0.5596854546412260  0.5038820409861842  0.4743943092876464
  0.5973611079349581  0.4712281836091279  0.4848829472295932
  0.5666605365713266  0.4049935640400051  0.5151874795625559
  0.4670486695616347  0.3045030895139007  0.5646106506893602
  0.4693101611408608  0.1859529460343197  0.5910453519457661
  0.4867655347034727  0.2911280287668845  0.6268671198187050
  0.4777967564066188  0.6904831849706525  0.4577965399761510
  0.4705782258539344  0.8070197559529078  0.4785148390221536
  0.4992076892890012  0.7290975085819014  0.5178748515035494
  0.4467456033346622  0.9585924758617210  0.5278415231940556
  0.4884549473621291  0.0325184707165320  0.5445521237334390
  0.6001485374188675  0.1328988576711936  0.5708635838041687
  0.5601174106352360  0.0670429088882756  0.5442672841419949
  0.4518970556096278  0.5096690603849012  0.4834028354852435
  0.4843488651013033  0.5810177420514862  0.4709799260752447
  0.4477172626185038  0.6144403121538815  0.4576615477299697
  0.4911728511802949  0.4742215106136030  0.4945393418212092
  0.4974599577150087  0.3746581863783760  0.5354223808345964
  0.4616244581739224  0.4092065608504285  0.5254825223965014
  0.4284634040920494  0.1898576310671345  0.5387728996863999
  0.4687651788812062  0.7814120539324279  0.4137898455542484
  0.3676611004221471  0.8126391269062125  0.5078561620918052
  0.3752722349882447  0.5763397200980052  0.4551896984688426
  0.3423208388671810  0.5059720259968827  0.4740666927057831
  0.3804045568468197  0.4741181172078157  0.4872553806486764
  0.2634411325495734  0.8090610806720164  0.5477143616575120
  0.2430094627080592  0.7755030306077799  0.6099785772605983
  0.2685088747077771  0.4725002523365092  0.4889507873940460
  0.1912375583418324  0.4563992105272305  0.5702153728656114
  0.3760022897195938  0.9218399951674598  0.5394134398316410
  0.3367738722053417  0.8510204795599421  0.5295312803837788
  0.2176914486279742  0.4624138783787828  0.4415670649997665
  0.1559687803121221  0.7284947910924515  0.5090206311476422
  0.1397566250004871  0.5702189317677409  0.5693140120018327
  0.1061082416059662  0.6088846315585670  0.5580185596439335
  0.0402821749856273  0.5766603712028768  0.5311376752604176
  0.1474146954960389  0.6844848001690664  0.5639904215750917
  0.1529132888982190  0.4726041637818739  0.5256316185628549
  0.0067193241942647  0.5073735603580474  0.5109988084971633
  0.0451642566796551  0.4740196370467444  0.5112610574228142
  0.1098979613738535  0.5034722003031789  0.5396201462189936
 
  0.00000000E+00  0.00000000E+00  0.00000000E+00
  0.00000000E+00  0.00000000E+00  0.00000000E+00
  0.00000000E+00  0.00000000E+00  0.00000000E+00
  0.00000000E+00  0.00000000E+00  0.00000000E+00
  0.00000000E+00  0.00000000E+00  0.00000000E+00
  0.00000000E+00  0.00000000E+00  0.00000000E+00
  0.00000000E+00  0.00000000E+00  0.00000000E+00
  0.00000000E+00  0.00000000E+00  0.00000000E+00
  0.00000000E+00  0.00000000E+00  0.00000000E+00
  0.00000000E+00  0.00000000E+00  0.00000000E+00
  0.00000000E+00  0.00000000E+00  0.00000000E+00
  0.00000000E+00  0.00000000E+00  0.00000000E+00
  0.00000000E+00  0.00000000E+00  0.00000000E+00
  0.00000000E+00  0.00000000E+00  0.00000000E+00
  0.00000000E+00  0.00000000E+00  0.00000000E+00
  0.00000000E+00  0.00000000E+00  0.00000000E+00
  0.00000000E+00  0.00000000E+00  0.00000000E+00
  0.00000000E+00  0.00000000E+00  0.00000000E+00
  0.00000000E+00  0.00000000E+00  0.00000000E+00
  0.00000000E+00  0.00000000E+00  0.00000000E+00
  0.00000000E+00  0.00000000E+00  0.00000000E+00
  0.00000000E+00  0.00000000E+00  0.00000000E+00
  0.00000000E+00  0.00000000E+00  0.00000000E+00
  0.00000000E+00  0.00000000E+00  0.00000000E+00
  0.00000000E+00  0.00000000E+00  0.00000000E+00
  0.00000000E+00  0.00000000E+00  0.00000000E+00
  0.00000000E+00  0.00000000E+00  0.00000000E+00
  0.00000000E+00  0.00000000E+00  0.00000000E+00
  0.00000000E+00  0.00000000E+00  0.00000000E+00
  0.00000000E+00  0.00000000E+00  0.00000000E+00
  0.00000000E+00  0.00000000E+00  0.00000000E+00
  0.00000000E+00  0.00000000E+00  0.00000000E+00
  0.00000000E+00  0.00000000E+00  0.00000000E+00
  0.00000000E+00  0.00000000E+00  0.00000000E+00
  0.00000000E+00  0.00000000E+00  0.00000000E+00
  0.00000000E+00  0.00000000E+00  0.00000000E+00
  0.00000000E+00  0.00000000E+00  0.00000000E+00
  0.00000000E+00  0.00000000E+00  0.00000000E+00
  0.00000000E+00  0.00000000E+00  0.00000000E+00
  0.00000000E+00  0.00000000E+00  0.00000000E+00
  0.00000000E+00  0.00000000E+00  0.00000000E+00
  0.00000000E+00  0.00000000E+00  0.00000000E+00
  0.00000000E+00  0.00000000E+00  0.00000000E+00
  0.00000000E+00  0.00000000E+00  0.00000000E+00
  0.00000000E+00  0.00000000E+00  0.00000000E+00
  0.00000000E+00  0.00000000E+00  0.00000000E+00
  0.00000000E+00  0.00000000E+00  0.00000000E+00
  0.00000000E+00  0.00000000E+00  0.00000000E+00
  0.00000000E+00  0.00000000E+00  0.00000000E+00
  0.00000000E+00  0.00000000E+00  0.00000000E+00
  0.00000000E+00  0.00000000E+00  0.00000000E+00
  0.00000000E+00  0.00000000E+00  0.00000000E+00
  0.00000000E+00  0.00000000E+00  0.00000000E+00
  0.00000000E+00  0.00000000E+00  0.00000000E+00
  0.00000000E+00  0.00000000E+00  0.00000000E+00
  0.00000000E+00  0.00000000E+00  0.00000000E+00
  0.00000000E+00  0.00000000E+00  0.00000000E+00
  0.00000000E+00  0.00000000E+00  0.00000000E+00
  0.00000000E+00  0.00000000E+00  0.00000000E+00
  0.00000000E+00  0.00000000E+00  0.00000000E+00
  0.00000000E+00  0.00000000E+00  0.00000000E+00
  0.00000000E+00  0.00000000E+00  0.00000000E+00
  0.00000000E+00  0.00000000E+00  0.00000000E+00
  0.00000000E+00  0.00000000E+00  0.00000000E+00
  0.00000000E+00  0.00000000E+00  0.00000000E+00
  0.00000000E+00  0.00000000E+00  0.00000000E+00
  0.00000000E+00  0.00000000E+00  0.00000000E+00
  0.00000000E+00  0.00000000E+00  0.00000000E+00
  0.00000000E+00  0.00000000E+00  0.00000000E+00
  0.00000000E+00  0.00000000E+00  0.00000000E+00
  0.00000000E+00  0.00000000E+00  0.00000000E+00
  0.00000000E+00  0.00000000E+00  0.00000000E+00
  0.00000000E+00  0.00000000E+00  0.00000000E+00
  0.00000000E+00  0.00000000E+00  0.00000000E+00
  0.00000000E+00  0.00000000E+00  0.00000000E+00
  0.00000000E+00  0.00000000E+00  0.00000000E+00
  0.00000000E+00  0.00000000E+00  0.00000000E+00
  0.00000000E+00  0.00000000E+00  0.00000000E+00
  0.00000000E+00  0.00000000E+00  0.00000000E+00
  0.00000000E+00  0.00000000E+00  0.00000000E+00
  0.00000000E+00  0.00000000E+00  0.00000000E+00
  0.00000000E+00  0.00000000E+00  0.00000000E+00
  0.00000000E+00  0.00000000E+00  0.00000000E+00
  0.00000000E+00  0.00000000E+00  0.00000000E+00
  0.00000000E+00  0.00000000E+00  0.00000000E+00
  0.00000000E+00  0.00000000E+00  0.00000000E+00
  0.00000000E+00  0.00000000E+00  0.00000000E+00
  0.00000000E+00  0.00000000E+00  0.00000000E+00
  0.00000000E+00  0.00000000E+00  0.00000000E+00
  0.00000000E+00  0.00000000E+00  0.00000000E+00
  0.00000000E+00  0.00000000E+00  0.00000000E+00
  0.00000000E+00  0.00000000E+00  0.00000000E+00
  0.00000000E+00  0.00000000E+00  0.00000000E+00
  0.00000000E+00  0.00000000E+00  0.00000000E+00
  0.00000000E+00  0.00000000E+00  0.00000000E+00
  0.00000000E+00  0.00000000E+00  0.00000000E+00
  0.00000000E+00  0.00000000E+00  0.00000000E+00
  0.00000000E+00  0.00000000E+00  0.00000000E+00
  0.00000000E+00  0.00000000E+00  0.00000000E+00
  0.00000000E+00  0.00000000E+00  0.00000000E+00
  0.00000000E+00  0.00000000E+00  0.00000000E+00
  0.00000000E+00  0.00000000E+00  0.00000000E+00
  0.00000000E+00  0.00000000E+00  0.00000000E+00
  0.00000000E+00  0.00000000E+00  0.00000000E+00
  0.00000000E+00  0.00000000E+00  0.00000000E+00
  0.00000000E+00  0.00000000E+00  0.00000000E+00
  0.00000000E+00  0.00000000E+00  0.00000000E+00
  0.00000000E+00  0.00000000E+00  0.00000000E+00
  0.00000000E+00  0.00000000E+00  0.00000000E+00
  0.00000000E+00  0.00000000E+00  0.00000000E+00
  0.00000000E+00  0.00000000E+00  0.00000000E+00
  0.00000000E+00  0.00000000E+00  0.00000000E+00
  0.00000000E+00  0.00000000E+00  0.00000000E+00
  0.00000000E+00  0.00000000E+00  0.00000000E+00
  0.00000000E+00  0.00000000E+00  0.00000000E+00
  0.00000000E+00  0.00000000E+00  0.00000000E+00
  0.00000000E+00  0.00000000E+00  0.00000000E+00
  0.00000000E+00  0.00000000E+00  0.00000000E+00
  0.00000000E+00  0.00000000E+00  0.00000000E+00
  0.00000000E+00  0.00000000E+00  0.00000000E+00
  0.00000000E+00  0.00000000E+00  0.00000000E+00
  0.00000000E+00  0.00000000E+00  0.00000000E+00
  0.00000000E+00  0.00000000E+00  0.00000000E+00
  0.00000000E+00  0.00000000E+00  0.00000000E+00
  0.00000000E+00  0.00000000E+00  0.00000000E+00
  0.00000000E+00  0.00000000E+00  0.00000000E+00
