Primitive Cell                          
   1.00000000000000     
    25.3875677156224384   -0.0578249675821200    0.0000000000000000
    -0.0743684603118706   25.3971181438317259    0.0000000000000000
     0.0000000000000000    0.0000000000000000   20.0000000000000000
   H    C    N 
    34    56    12
Direct
  0.0149034738988689  0.2907442138241123  0.4091879185774516
  0.0192037250500476  0.1925121486755756  0.4081289879342975
  0.7861237762958453  0.0180646015072767  0.4071116856981192
  0.6877624562284623  0.0141318491196074  0.4077705533942861
  0.9660026542336624  0.7837343150775951  0.4050464474819648
  0.9688788792397247  0.6854198279473920  0.4080986595012490
  0.2922633929729130  0.9694791631981658  0.4083640587624728
  0.1938520268704806  0.9664782573368029  0.4052017681314410
  0.9644328926038028  0.5335193289553430  0.3627911443798411
  0.4436555277491223  0.9653859325971723  0.3625666840252819
  0.9460415138556542  0.2856339093432183  0.6058592297125500
  0.9506478090386281  0.1878412605502362  0.6049527454993679
  0.0917739516282410  0.1707724385571154  0.5076335209376168
  0.1678338064730482  0.0974371288034703  0.5069425882049003
  0.0192372651883730  0.0196072649466288  0.5039408148371720
  0.9597255970352379  0.9572063047227530  0.5045831844559459
  0.8808381349493288  0.1659834356611540  0.5029536070585650
  0.8074964569896892  0.0896004655981031  0.5048106583105394
  0.7892800051978099  0.9503378869245793  0.6044081525565872
  0.6914216308372616  0.9458586493829912  0.6048021837345985
  0.8113959978577725  0.8788581203555097  0.5025484432707970
  0.8876803291894717  0.8058013439524672  0.5035608102217779
  0.1716173664446359  0.8873378312930313  0.5054692945499681
  0.0981560559884542  0.8106836600671983  0.5041817666938897
  0.0223589044737764  0.7895085991753490  0.6079679594359177
  0.0253026283068110  0.6916203568150152  0.6109173417781903
  0.1885904794422970  0.0180736680825291  0.6101267196278854
  0.2865476716172140  0.0208877507452740  0.6133233680817582
  0.0146096770204593  0.6070834767939530  0.5589355467187360
  0.6081770548956840  0.9559477695468530  0.5506885904008598
  0.9562987143338049  0.3692745291587158  0.5521006191176241
  0.3710868570029504  0.0113908305379269  0.5609164834016838
  0.0199439985944778  0.4433197996546170  0.5644755404961472
  0.5350855522262989  0.0198255814775266  0.5642744276536504
  0.2144102856368804  0.9782437494747285  0.4507727017798544
  0.2690670367816494  0.9798335133708989  0.4522686624094376
  0.9786438019634929  0.7633117240508724  0.4502460540754001
  0.9802406153506524  0.7086839404102747  0.4516332184642664
  0.7104657255818836  0.0006289826983803  0.4507075991513645
  0.7651208718450562  0.0026862020756866  0.4505740897903010
  0.0036834840938553  0.2131504355958427  0.4516741635736068
  0.0013954032762484  0.2677506245387065  0.4519828392109702
  0.9759059831804677  0.5123572480121510  0.4080694485640848
  0.9891550025552220  0.5413179376154176  0.4659505290699002
  0.4650705701496705  0.9765827807003191  0.4078625120395714
  0.4364297165858417  0.9892882347645724  0.4660954938298474
  0.0867290505859373  0.1283578456715517  0.5065205557903738
  0.1255797430811327  0.0909296423215409  0.5064701045658637
  0.1007260906044394  0.0400623655671382  0.5056942727152318
  0.0367608739219989  0.1016884455797680  0.5049082722047942
  0.9865963117960561  0.1249044228157530  0.5053106789391961
  0.9380642258178398  0.0973982550517718  0.5050192252223269
  0.8784633154855115  0.0353077134381792  0.5043465064530110
  0.8499812518385070  0.0850515993324308  0.5045194053780904
  0.8871385784029613  0.1237616183080732  0.5040909836816212
  0.8530247896166046  0.9857119315495879  0.5048192279696408
  0.8782952220817961  0.9365543575165205  0.5044969808049515
  0.9424201878837195  0.8750617558188267  0.5037338584265143
  0.8925442224239575  0.8482506474307385  0.5036681180942750
  0.8536002035642909  0.8855790238271410  0.5034928898089603
  0.9925496352469025  0.8518641511544089  0.5046198550897856
  0.0410406703124977  0.8793284663028729  0.5046078005313603
  0.1005486935553961  0.9413929289947731  0.5043228879149311
  0.1291038692298017  0.8916868165621850  0.5049003531559677
  0.0919725590920706  0.8529430261735769  0.5045627409978195
  0.1259459920443291  0.9909507029889895  0.5055562276038472
  0.1846934576364134  0.9921767776993349  0.5074782666414208
  0.2958435996933702  0.9953712969938735  0.5108311087416268
  0.2661855283921923  0.0090495916169502  0.5675711079253958
  0.2113370026347496  0.0075509741471862  0.5658642536092842
  0.9939253992626931  0.7931740804725322  0.5063877040509794
  0.9971672416984418  0.6820627539416222  0.5095448468951176
  0.0122764257901764  0.7118716045572597  0.5657075040889126
  0.0106698649425070  0.7666717079503158  0.5641651288595142
  0.7943283642374226  0.9843825942751394  0.5057021983286774
  0.7670378684340520  0.9641557761653488  0.5612280624140524
  0.7122130072001269  0.9618121812374341  0.5614104540937745
  0.6832288469134724  0.9799507058003556  0.5062355275783759
  0.9851386339419363  0.1835527359465559  0.5064985190525846
  0.9647082827498892  0.2104172411367813  0.5620675468836396
  0.9803888512448893  0.2945522222173125  0.5074739847914529
  0.9622309774514761  0.2651899264627033  0.5624717869343243
  0.9998311041212418  0.6247679191647819  0.5122079822181362
  0.6258354938147335  0.9760240743138695  0.5068639930043588
  0.9761164917285825  0.3518645031225489  0.5080698567782775
  0.3531829317793367  0.9980810257695865  0.5135200969132825
  0.9909167779540837  0.4349126777018881  0.4621512996197623
  0.0057794979729735  0.4638626599157405  0.5198821157997813
  0.5428767354426114  0.9913828675518275  0.4616440086570464
  0.5142680800078452  0.0058320227430642  0.5196860350614898
  0.9769715901531555  0.4600437651530314  0.4055243083292481
  0.9858167809177374  0.5959666105882775  0.4619354343066959
  0.5173994144878051  0.9778112045306102  0.4050348238466555
  0.3817219703756507  0.9858000707886347  0.4624104123156840
  0.0472428381972136  0.0485888501288514  0.5044388179299730
  0.9318539333930431  0.0437347172977809  0.5047495953451389
  0.9317886772094184  0.9281613139204694  0.5040804853067229
  0.0471623896621907  0.9329691814588443  0.5040020358910553
  0.0046960243637031  0.5161243802497424  0.5219489866533067
  0.9928573297829928  0.3804669759908137  0.4593431954505007
  0.4619853721687903  0.0045985279384695  0.5220262162788458
  0.5973599669260850  0.9933426909514793  0.4584874727345820
 
  0.00000000E+00  0.00000000E+00  0.00000000E+00
  0.00000000E+00  0.00000000E+00  0.00000000E+00
  0.00000000E+00  0.00000000E+00  0.00000000E+00
  0.00000000E+00  0.00000000E+00  0.00000000E+00
  0.00000000E+00  0.00000000E+00  0.00000000E+00
  0.00000000E+00  0.00000000E+00  0.00000000E+00
  0.00000000E+00  0.00000000E+00  0.00000000E+00
  0.00000000E+00  0.00000000E+00  0.00000000E+00
  0.00000000E+00  0.00000000E+00  0.00000000E+00
  0.00000000E+00  0.00000000E+00  0.00000000E+00
  0.00000000E+00  0.00000000E+00  0.00000000E+00
  0.00000000E+00  0.00000000E+00  0.00000000E+00
  0.00000000E+00  0.00000000E+00  0.00000000E+00
  0.00000000E+00  0.00000000E+00  0.00000000E+00
  0.00000000E+00  0.00000000E+00  0.00000000E+00
  0.00000000E+00  0.00000000E+00  0.00000000E+00
  0.00000000E+00  0.00000000E+00  0.00000000E+00
  0.00000000E+00  0.00000000E+00  0.00000000E+00
  0.00000000E+00  0.00000000E+00  0.00000000E+00
  0.00000000E+00  0.00000000E+00  0.00000000E+00
  0.00000000E+00  0.00000000E+00  0.00000000E+00
  0.00000000E+00  0.00000000E+00  0.00000000E+00
  0.00000000E+00  0.00000000E+00  0.00000000E+00
  0.00000000E+00  0.00000000E+00  0.00000000E+00
  0.00000000E+00  0.00000000E+00  0.00000000E+00
  0.00000000E+00  0.00000000E+00  0.00000000E+00
  0.00000000E+00  0.00000000E+00  0.00000000E+00
  0.00000000E+00  0.00000000E+00  0.00000000E+00
  0.00000000E+00  0.00000000E+00  0.00000000E+00
  0.00000000E+00  0.00000000E+00  0.00000000E+00
  0.00000000E+00  0.00000000E+00  0.00000000E+00
  0.00000000E+00  0.00000000E+00  0.00000000E+00
  0.00000000E+00  0.00000000E+00  0.00000000E+00
  0.00000000E+00  0.00000000E+00  0.00000000E+00
  0.00000000E+00  0.00000000E+00  0.00000000E+00
  0.00000000E+00  0.00000000E+00  0.00000000E+00
  0.00000000E+00  0.00000000E+00  0.00000000E+00
  0.00000000E+00  0.00000000E+00  0.00000000E+00
  0.00000000E+00  0.00000000E+00  0.00000000E+00
  0.00000000E+00  0.00000000E+00  0.00000000E+00
  0.00000000E+00  0.00000000E+00  0.00000000E+00
  0.00000000E+00  0.00000000E+00  0.00000000E+00
  0.00000000E+00  0.00000000E+00  0.00000000E+00
  0.00000000E+00  0.00000000E+00  0.00000000E+00
  0.00000000E+00  0.00000000E+00  0.00000000E+00
  0.00000000E+00  0.00000000E+00  0.00000000E+00
  0.00000000E+00  0.00000000E+00  0.00000000E+00
  0.00000000E+00  0.00000000E+00  0.00000000E+00
  0.00000000E+00  0.00000000E+00  0.00000000E+00
  0.00000000E+00  0.00000000E+00  0.00000000E+00
  0.00000000E+00  0.00000000E+00  0.00000000E+00
  0.00000000E+00  0.00000000E+00  0.00000000E+00
  0.00000000E+00  0.00000000E+00  0.00000000E+00
  0.00000000E+00  0.00000000E+00  0.00000000E+00
  0.00000000E+00  0.00000000E+00  0.00000000E+00
  0.00000000E+00  0.00000000E+00  0.00000000E+00
  0.00000000E+00  0.00000000E+00  0.00000000E+00
  0.00000000E+00  0.00000000E+00  0.00000000E+00
  0.00000000E+00  0.00000000E+00  0.00000000E+00
  0.00000000E+00  0.00000000E+00  0.00000000E+00
  0.00000000E+00  0.00000000E+00  0.00000000E+00
  0.00000000E+00  0.00000000E+00  0.00000000E+00
  0.00000000E+00  0.00000000E+00  0.00000000E+00
  0.00000000E+00  0.00000000E+00  0.00000000E+00
  0.00000000E+00  0.00000000E+00  0.00000000E+00
  0.00000000E+00  0.00000000E+00  0.00000000E+00
  0.00000000E+00  0.00000000E+00  0.00000000E+00
  0.00000000E+00  0.00000000E+00  0.00000000E+00
  0.00000000E+00  0.00000000E+00  0.00000000E+00
  0.00000000E+00  0.00000000E+00  0.00000000E+00
  0.00000000E+00  0.00000000E+00  0.00000000E+00
  0.00000000E+00  0.00000000E+00  0.00000000E+00
  0.00000000E+00  0.00000000E+00  0.00000000E+00
  0.00000000E+00  0.00000000E+00  0.00000000E+00
  0.00000000E+00  0.00000000E+00  0.00000000E+00
  0.00000000E+00  0.00000000E+00  0.00000000E+00
  0.00000000E+00  0.00000000E+00  0.00000000E+00
  0.00000000E+00  0.00000000E+00  0.00000000E+00
  0.00000000E+00  0.00000000E+00  0.00000000E+00
  0.00000000E+00  0.00000000E+00  0.00000000E+00
  0.00000000E+00  0.00000000E+00  0.00000000E+00
  0.00000000E+00  0.00000000E+00  0.00000000E+00
  0.00000000E+00  0.00000000E+00  0.00000000E+00
  0.00000000E+00  0.00000000E+00  0.00000000E+00
  0.00000000E+00  0.00000000E+00  0.00000000E+00
  0.00000000E+00  0.00000000E+00  0.00000000E+00
  0.00000000E+00  0.00000000E+00  0.00000000E+00
  0.00000000E+00  0.00000000E+00  0.00000000E+00
  0.00000000E+00  0.00000000E+00  0.00000000E+00
  0.00000000E+00  0.00000000E+00  0.00000000E+00
  0.00000000E+00  0.00000000E+00  0.00000000E+00
  0.00000000E+00  0.00000000E+00  0.00000000E+00
  0.00000000E+00  0.00000000E+00  0.00000000E+00
  0.00000000E+00  0.00000000E+00  0.00000000E+00
  0.00000000E+00  0.00000000E+00  0.00000000E+00
  0.00000000E+00  0.00000000E+00  0.00000000E+00
  0.00000000E+00  0.00000000E+00  0.00000000E+00
  0.00000000E+00  0.00000000E+00  0.00000000E+00
  0.00000000E+00  0.00000000E+00  0.00000000E+00
  0.00000000E+00  0.00000000E+00  0.00000000E+00
  0.00000000E+00  0.00000000E+00  0.00000000E+00
  0.00000000E+00  0.00000000E+00  0.00000000E+00
