Primitive Cell                          
   1.00000000000000     
    22.0422962913166103    0.0030294426647079    0.0000000000000000
   -11.0183747781677148   19.0829948335750927    0.0000000000000000
     0.0000000000000000    0.0000000000000000   20.0000000000000000
   H    C    O    N 
    24    42     6    12
Direct
  0.3177542169342544  0.7716600740707307  0.5305858835803576
  0.4490209836742949  0.6785351400789921  0.5291156764133405
  0.2246374276679930  0.5472528690834650  0.5290840738766747
  0.7317143006468498  0.2699583362758773  0.4563906569884111
  0.5339725267634847  0.2648849299583631  0.4572648411796365
  0.7266693918756175  0.4627162688203299  0.4548256538644537
  0.4464875807420867  0.1065755609116081  0.6549042630401942
  0.3675697976913455  0.9759741505086197  0.6696885802373487
  0.4123885119768786  0.8515087497524547  0.5762850031910318
  0.6554552529190616  0.5497730285559612  0.6531408326974741
  0.6030141417164927  0.6278428475813058  0.6692345826400441
  0.4339308282580205  0.5836038632321916  0.5752995574744801
  0.8887831447064372  0.3388257324865052  0.6508943308942747
  0.0191463744357279  0.3911461137163030  0.6677677313421242
  0.1446525332828230  0.5617292774730345  0.5760586829300465
  0.5726979141524424  0.9193902905405835  0.4701577132190593
  0.6390297172996284  0.0462564588162024  0.4417626171516886
  0.6678159358907010  0.1758332178078206  0.5017066098556882
  0.3426944882391609  0.4245055425789204  0.4675690299112460
  0.4032366310211302  0.3581087852810967  0.4392325691205770
  0.5040703056383649  0.3292906574951289  0.5008362128846997
  0.0773243037853959  0.6547098467336951  0.4700514544640413
  0.9507350338703517  0.5943962673485927  0.4406483793675520
  0.8204709534498136  0.4919141570207444  0.5015409996297677
  0.3365229241106604  0.6053486157117547  0.5333283423176169
  0.2702154786217008  0.5996711379033997  0.5335528345377156
  0.2640002354205535  0.6597383036947804  0.5343060528644443
  0.3246523705791518  0.7260566393441508  0.5343871260729571
  0.3965671255259622  0.6716181050512802  0.5335172699037827
  0.3393480712612629  0.5391938080129037  0.5240312951577408
  0.1950222377961737  0.6571285875631716  0.5260303903592671
  0.6273270372634911  0.3692903432850940  0.4579012285156026
  0.7006928204813292  0.4056290351018674  0.4569268698454039
  0.7375691496987926  0.3693286540888181  0.4574779190494880
  0.7005584631732376  0.2959199991190573  0.4578378293050278
  0.5910676115849469  0.2961127519807008  0.4582851015047567
  0.5927011327558773  0.4131213223350656  0.4607088162642512
  0.8160396111057864  0.4041070652599785  0.4599033840200875
  0.4999845739640918  0.9289949645057405  0.5342717633733258
  0.4824808010967345  0.9770307850508217  0.5651785070145792
  0.5237416115742448  0.0505433865908174  0.5525270373715756
  0.4567497933523939  0.0697882995877492  0.6272614740097566
  0.4131129363721513  0.9965679424724669  0.6366350635747082
  0.4244455930855935  0.4965133812045011  0.5325447204807006
  0.4897896097506944  0.5137945670746120  0.5637552952170068
  0.5222749979027768  0.4728127269469482  0.5506711932879895
  0.6083101971354168  0.5394425606096718  0.6256633770869300
  0.5783306966170798  0.5826355044894598  0.6357311430301706
  0.0672764948076008  0.5719221853326957  0.5337289413543758
  0.0190295655035300  0.5060359166350352  0.5639609338164107
  0.9456817887148077  0.4736510560667853  0.5503386989374164
  0.9257872203638655  0.3864465868078852  0.6241274629918081
  0.9988564052585289  0.4163347431431319  0.6346362426508989
  0.3909254658234431  0.7322778231021658  0.5341782766101915
  0.4572884418808556  0.8012604216554493  0.5258430047588902
  0.6273916768985899  0.2590439850254995  0.4589040617652955
  0.5834754221496539  0.1806433476519800  0.4628126047210657
  0.5796884528064226  0.0749595462897616  0.5053386121068968
  0.5960808609620187  0.0274451553773858  0.4776456835504348
  0.5581311547703152  0.9551890230866391  0.4926560165684961
  0.4909210766541534  0.4171440715640671  0.5031885425426808
  0.4271761447233970  0.4009061905730178  0.4753014585656601
  0.3928303805701532  0.4387873906060804  0.4903874750298414
  0.9216579885463503  0.5056340377790605  0.5032373804044568
  0.9693199947683695  0.5699002134873226  0.4763565111633241
  0.0413856268685819  0.6041375357924110  0.4920612038723959
  0.5097574585054829  0.8049780397391260  0.4994692672418779
  0.2909577772865859  0.4872003462678123  0.4966914838702152
  0.1913589374535292  0.7059760906239063  0.4997984460580724
  0.5213515711196592  0.1493133051283451  0.4459202193562319
  0.6232798659759169  0.4749978389586147  0.4429507000740216
  0.8473466132565761  0.3737436438360788  0.4415663657215987
  0.5107679585675982  0.0966458111379680  0.5859994792693541
  0.4261434009334479  0.9508034796999496  0.6066670749169560
  0.4538910511743453  0.8586941239559778  0.5476533145079614
  0.5814359454674616  0.4857598190062618  0.5839589993565539
  0.5195389467077831  0.5696762702254503  0.6058349412912847
  0.3999834105120001  0.5423687655612071  0.5461796979630051
  0.8992994879744032  0.4139419252190919  0.5827849511861913
  0.0448480445977282  0.4756652052107313  0.6056241723606917
  0.1375152901295138  0.5962147696810476  0.5476320368686203
  0.6168690188061561  0.1468161244456425  0.4878953135063355
  0.5254973583369775  0.3798472287393437  0.4857794102151942
  0.8498943242558212  0.4712343294737451  0.4853113288111643
 
  0.00000000E+00  0.00000000E+00  0.00000000E+00
  0.00000000E+00  0.00000000E+00  0.00000000E+00
  0.00000000E+00  0.00000000E+00  0.00000000E+00
  0.00000000E+00  0.00000000E+00  0.00000000E+00
  0.00000000E+00  0.00000000E+00  0.00000000E+00
  0.00000000E+00  0.00000000E+00  0.00000000E+00
  0.00000000E+00  0.00000000E+00  0.00000000E+00
  0.00000000E+00  0.00000000E+00  0.00000000E+00
  0.00000000E+00  0.00000000E+00  0.00000000E+00
  0.00000000E+00  0.00000000E+00  0.00000000E+00
  0.00000000E+00  0.00000000E+00  0.00000000E+00
  0.00000000E+00  0.00000000E+00  0.00000000E+00
  0.00000000E+00  0.00000000E+00  0.00000000E+00
  0.00000000E+00  0.00000000E+00  0.00000000E+00
  0.00000000E+00  0.00000000E+00  0.00000000E+00
  0.00000000E+00  0.00000000E+00  0.00000000E+00
  0.00000000E+00  0.00000000E+00  0.00000000E+00
  0.00000000E+00  0.00000000E+00  0.00000000E+00
  0.00000000E+00  0.00000000E+00  0.00000000E+00
  0.00000000E+00  0.00000000E+00  0.00000000E+00
  0.00000000E+00  0.00000000E+00  0.00000000E+00
  0.00000000E+00  0.00000000E+00  0.00000000E+00
  0.00000000E+00  0.00000000E+00  0.00000000E+00
  0.00000000E+00  0.00000000E+00  0.00000000E+00
  0.00000000E+00  0.00000000E+00  0.00000000E+00
  0.00000000E+00  0.00000000E+00  0.00000000E+00
  0.00000000E+00  0.00000000E+00  0.00000000E+00
  0.00000000E+00  0.00000000E+00  0.00000000E+00
  0.00000000E+00  0.00000000E+00  0.00000000E+00
  0.00000000E+00  0.00000000E+00  0.00000000E+00
  0.00000000E+00  0.00000000E+00  0.00000000E+00
  0.00000000E+00  0.00000000E+00  0.00000000E+00
  0.00000000E+00  0.00000000E+00  0.00000000E+00
  0.00000000E+00  0.00000000E+00  0.00000000E+00
  0.00000000E+00  0.00000000E+00  0.00000000E+00
  0.00000000E+00  0.00000000E+00  0.00000000E+00
  0.00000000E+00  0.00000000E+00  0.00000000E+00
  0.00000000E+00  0.00000000E+00  0.00000000E+00
  0.00000000E+00  0.00000000E+00  0.00000000E+00
  0.00000000E+00  0.00000000E+00  0.00000000E+00
  0.00000000E+00  0.00000000E+00  0.00000000E+00
  0.00000000E+00  0.00000000E+00  0.00000000E+00
  0.00000000E+00  0.00000000E+00  0.00000000E+00
  0.00000000E+00  0.00000000E+00  0.00000000E+00
  0.00000000E+00  0.00000000E+00  0.00000000E+00
  0.00000000E+00  0.00000000E+00  0.00000000E+00
  0.00000000E+00  0.00000000E+00  0.00000000E+00
  0.00000000E+00  0.00000000E+00  0.00000000E+00
  0.00000000E+00  0.00000000E+00  0.00000000E+00
  0.00000000E+00  0.00000000E+00  0.00000000E+00
  0.00000000E+00  0.00000000E+00  0.00000000E+00
  0.00000000E+00  0.00000000E+00  0.00000000E+00
  0.00000000E+00  0.00000000E+00  0.00000000E+00
  0.00000000E+00  0.00000000E+00  0.00000000E+00
  0.00000000E+00  0.00000000E+00  0.00000000E+00
  0.00000000E+00  0.00000000E+00  0.00000000E+00
  0.00000000E+00  0.00000000E+00  0.00000000E+00
  0.00000000E+00  0.00000000E+00  0.00000000E+00
  0.00000000E+00  0.00000000E+00  0.00000000E+00
  0.00000000E+00  0.00000000E+00  0.00000000E+00
  0.00000000E+00  0.00000000E+00  0.00000000E+00
  0.00000000E+00  0.00000000E+00  0.00000000E+00
  0.00000000E+00  0.00000000E+00  0.00000000E+00
  0.00000000E+00  0.00000000E+00  0.00000000E+00
  0.00000000E+00  0.00000000E+00  0.00000000E+00
  0.00000000E+00  0.00000000E+00  0.00000000E+00
  0.00000000E+00  0.00000000E+00  0.00000000E+00
  0.00000000E+00  0.00000000E+00  0.00000000E+00
  0.00000000E+00  0.00000000E+00  0.00000000E+00
  0.00000000E+00  0.00000000E+00  0.00000000E+00
  0.00000000E+00  0.00000000E+00  0.00000000E+00
  0.00000000E+00  0.00000000E+00  0.00000000E+00
  0.00000000E+00  0.00000000E+00  0.00000000E+00
  0.00000000E+00  0.00000000E+00  0.00000000E+00
  0.00000000E+00  0.00000000E+00  0.00000000E+00
  0.00000000E+00  0.00000000E+00  0.00000000E+00
  0.00000000E+00  0.00000000E+00  0.00000000E+00
  0.00000000E+00  0.00000000E+00  0.00000000E+00
  0.00000000E+00  0.00000000E+00  0.00000000E+00
  0.00000000E+00  0.00000000E+00  0.00000000E+00
  0.00000000E+00  0.00000000E+00  0.00000000E+00
  0.00000000E+00  0.00000000E+00  0.00000000E+00
  0.00000000E+00  0.00000000E+00  0.00000000E+00
  0.00000000E+00  0.00000000E+00  0.00000000E+00
