Primitive Cell                          
   1.00000000000000     
    29.7931238169778183   -0.0022486297790730    0.0000000000000000
   -14.8985091696774798   25.7918151630369152    0.0000000000000000
     0.0000000000000000    0.0000000000000000   20.0000000000000000
   O    C    N    H 
     3    66     6    42
Direct
  0.5115197510405096  0.0124122879772841  0.6897120751908190
  0.5090817162940908  0.4952089835020743  0.6898420232223970
  0.9948951302104732  0.4949641161010661  0.6898120407691337
  0.0576043847519188  0.5280044776624848  0.5082201718063715
  0.0272304455625445  0.5128105646343215  0.4497811435301458
  0.2834273506701592  0.6408445234922056  0.5019772613227858
  0.3115986232348078  0.6952439775107138  0.5019358084595140
  0.3659853597234886  0.7233712131292194  0.5019731875559685
  0.3921999846884390  0.6952084010101132  0.5019847615439517
  0.3659154105347753  0.6408048063521719  0.5020541834554137
  0.3115270604527112  0.6145605552447932  0.5019944203233067
  0.3949009888883523  0.7811676962933163  0.5025302153389504
  0.3690060217928064  0.8098388781535348  0.5029538767100661
  0.3958881381363355  0.8638260308798138  0.5043665162800721
  0.4501246582790799  0.8915964016851277  0.5055202176350235
  0.4766029208760969  0.8638385396704464  0.5046606480918285
  0.4494782398164148  0.8098486103496825  0.5031876026944033
  0.2256426936098208  0.6119881305292623  0.5025292922447377
  0.1970303271945255  0.6379453371026997  0.5031946022116642
  0.1430573534622539  0.6111066214218326  0.5045724032419443
  0.1152561454505872  0.5568552089739995  0.5054022771760032
  0.1429575336413009  0.5303259325917722  0.5043243585824939
  0.1969273687204947  0.5574031046037931  0.5029294828019673
  0.3948025995778863  0.6119158651396148  0.5026946410986284
  0.3688906386596855  0.5573274263237451  0.5032319085916015
  0.3957558357873339  0.5302284815664251  0.5046946593293740
  0.4499965962932251  0.5567318377539152  0.5057117234678401
  0.4764851234409093  0.6109818748604852  0.5047706439064967
  0.4493813545977119  0.6378436376857550  0.5033140084424588
  0.7268120419479729  0.3626532572283452  0.5021681231901525
  0.6986740168358949  0.3082479030111145  0.5020277601153538
  0.6442862534569542  0.2800916583106527  0.5020817921175080
  0.6180294622684457  0.3082154797962673  0.5020785099690741
  0.6442770137740155  0.3626160828033989  0.5021539154353860
  0.6986739928293559  0.3889049878845299  0.5022113323637427
  0.6153950300086706  0.2223120585621956  0.5032042218504174
  0.6412664467408788  0.1936098409013525  0.5041078137449375
  0.6143593929795230  0.1396674103706133  0.5070896894493089
  0.5601580731776323  0.1119557084544596  0.5095672678228382
  0.5337131852740242  0.1396941238696598  0.5067058659894599
  0.5608102435696765  0.1936302466879667  0.5037694760067382
  0.7845837717729225  0.3915279991103446  0.5033407621722432
  0.8132266963107924  0.3655953872197557  0.5043559801178432
  0.8671480285135189  0.3924385198721438  0.5074161114259397
  0.8949314653809921  0.4466537546274907  0.5098686623380999
  0.8672539180642573  0.4731643937730752  0.5069074508188720
  0.8133235719308587  0.4461250611683383  0.5038683976329636
  0.6153458371422502  0.3914487353234506  0.5032746451911834
  0.6411822693533082  0.4460422714623178  0.5037742625338666
  0.6142671457743845  0.4730510369142493  0.5067673681503351
  0.5600696144029911  0.4465056803835168  0.5096919679118557
  0.5336499584349781  0.3922855298705699  0.5072220435666992
  0.5607633386873658  0.3654786386725277  0.5042429804480406
  0.5312294834863138  0.0542278629117021  0.5125006187306269
  0.4788739618034441  0.9492756048135433  0.5082687227705875
  0.5165568384741306  0.0240939226415406  0.5717804166883198
  0.5268407309173710  0.0441364529406343  0.6442045871600541
  0.5550918776148492  0.1014674221525311  0.6596240662870301
  0.5311417056837584  0.4753030665335061  0.5126569127845215
  0.4787725251952750  0.5278552689066487  0.5084234288524243
  0.5161616261971034  0.4904574835853737  0.5719479186051402
  0.5257852142305097  0.4801287816965285  0.6444245779711366
  0.5549975838077614  0.4520334020612395  0.6598811545837506
  0.9526693927918615  0.4754749773419888  0.5127457878738610
  0.9829156408869650  0.4904499974671026  0.5719442200098115
  0.9630578259886207  0.4800753660214667  0.6444547516671335
  0.9057569241595331  0.4521864928808981  0.6599960874761450
  0.4934298852229162  0.9795593088875805  0.4497540942198910
  0.4935629116927771  0.5123750624871164  0.4499019252667793
  0.0350272290537461  0.5166048876440357  0.5681714840043028
  0.4905686085760408  0.9719691856605834  0.5681632462572779
  0.4902547756890883  0.5166516318784318  0.5683143577624321
  0.5191981034833120  0.0311810744798180  0.4518622543194795
  0.5193807493333011  0.4865942791439437  0.4520085462641248
  0.9756274565668193  0.4870140304626318  0.4520338150647163
  0.0452681595713287  0.5218362528273133  0.4002841553385608
  0.1222744026989133  0.6326077415434312  0.5057940500114597
  0.2167599260194493  0.6801391072368972  0.5030894831898181
  0.1220981218754815  0.4880220092783958  0.5053510881421488
  0.2165811739539620  0.5348837484034163  0.5025869224188355
  0.3267083213636255  0.5348185520138955  0.5029372522334086
  0.3742797440300905  0.4879287508349321  0.5058201371962454
  0.4718822969881913  0.6800367269923626  0.5030825831783829
  0.5187749898878664  0.6324676844681392  0.5059026116752889
  0.4719466528842418  0.7901377465674884  0.5029940552539927
  0.5188915727685597  0.8846505652405625  0.5058571445136408
  0.3744240750838799  0.8846488196963023  0.5053588850912547
  0.3268238744037006  0.7901393383031632  0.5026106123067180
  0.2905731654657515  0.7163059284995512  0.5021396839506380
  0.2904486677425240  0.5724547399687907  0.5022251007329857
  0.4342955900168377  0.7162451014755220  0.5022354120337766
  0.8879678623029008  0.3709651169127355  0.5082157204639088
  0.7935569403953124  0.3234190049737862  0.5028839429129235
  0.8881530746593356  0.5154801124066850  0.5072988000527658
  0.7937079671403566  0.4686637143191916  0.5019904546002181
  0.6833378281650369  0.4686049277252593  0.5019001160263130
  0.6356682778422282  0.5153693681632703  0.5071586557220229
  0.5382842157615428  0.3233001438530820  0.5027851578169447
  0.4913464640382017  0.3707748616779583  0.5079794180748252
  0.5383214896267532  0.2132937763329821  0.5019888773950001
  0.4914097956217631  0.1188265627601197  0.5071440478040472
  0.6357575342426074  0.1187690804732640  0.5078033788692693
  0.6834320465252972  0.2132482449972599  0.5025769460451741
  0.7197161204335174  0.2871974456349946  0.5022971760209742
  0.7197137684744845  0.4310128191509293  0.5027684848540730
  0.5759345079180775  0.2871448754964305  0.5024296439192568
  0.5351679958822118  0.1206900360225234  0.6379999220432069
  0.5572528879227860  0.1059553082099214  0.7140715379997289
  0.5943232973557500  0.1211187308351498  0.6382200250169845
  0.5940883167691169  0.4719968126233525  0.6380764280204403
  0.5574548702354676  0.4499619941981265  0.7143220995021053
  0.5354395000904546  0.4127386006170326  0.6386146418814533
  0.8858924023341928  0.4128840856674358  0.6387652739661434
  0.9012676804154154  0.4501414720496655  0.7144433039306648
  0.8867142864042989  0.4722316361064571  0.6382096029890505
  0.4839140517605927  0.9614418112452299  0.4003125675778918
  0.4841865080519412  0.5211187931181271  0.4004571012997857
 
  0.00000000E+00  0.00000000E+00  0.00000000E+00
  0.00000000E+00  0.00000000E+00  0.00000000E+00
  0.00000000E+00  0.00000000E+00  0.00000000E+00
  0.00000000E+00  0.00000000E+00  0.00000000E+00
  0.00000000E+00  0.00000000E+00  0.00000000E+00
  0.00000000E+00  0.00000000E+00  0.00000000E+00
  0.00000000E+00  0.00000000E+00  0.00000000E+00
  0.00000000E+00  0.00000000E+00  0.00000000E+00
  0.00000000E+00  0.00000000E+00  0.00000000E+00
  0.00000000E+00  0.00000000E+00  0.00000000E+00
  0.00000000E+00  0.00000000E+00  0.00000000E+00
  0.00000000E+00  0.00000000E+00  0.00000000E+00
  0.00000000E+00  0.00000000E+00  0.00000000E+00
  0.00000000E+00  0.00000000E+00  0.00000000E+00
  0.00000000E+00  0.00000000E+00  0.00000000E+00
  0.00000000E+00  0.00000000E+00  0.00000000E+00
  0.00000000E+00  0.00000000E+00  0.00000000E+00
  0.00000000E+00  0.00000000E+00  0.00000000E+00
  0.00000000E+00  0.00000000E+00  0.00000000E+00
  0.00000000E+00  0.00000000E+00  0.00000000E+00
  0.00000000E+00  0.00000000E+00  0.00000000E+00
  0.00000000E+00  0.00000000E+00  0.00000000E+00
  0.00000000E+00  0.00000000E+00  0.00000000E+00
  0.00000000E+00  0.00000000E+00  0.00000000E+00
  0.00000000E+00  0.00000000E+00  0.00000000E+00
  0.00000000E+00  0.00000000E+00  0.00000000E+00
  0.00000000E+00  0.00000000E+00  0.00000000E+00
  0.00000000E+00  0.00000000E+00  0.00000000E+00
  0.00000000E+00  0.00000000E+00  0.00000000E+00
  0.00000000E+00  0.00000000E+00  0.00000000E+00
  0.00000000E+00  0.00000000E+00  0.00000000E+00
  0.00000000E+00  0.00000000E+00  0.00000000E+00
  0.00000000E+00  0.00000000E+00  0.00000000E+00
  0.00000000E+00  0.00000000E+00  0.00000000E+00
  0.00000000E+00  0.00000000E+00  0.00000000E+00
  0.00000000E+00  0.00000000E+00  0.00000000E+00
  0.00000000E+00  0.00000000E+00  0.00000000E+00
  0.00000000E+00  0.00000000E+00  0.00000000E+00
  0.00000000E+00  0.00000000E+00  0.00000000E+00
  0.00000000E+00  0.00000000E+00  0.00000000E+00
  0.00000000E+00  0.00000000E+00  0.00000000E+00
  0.00000000E+00  0.00000000E+00  0.00000000E+00
  0.00000000E+00  0.00000000E+00  0.00000000E+00
  0.00000000E+00  0.00000000E+00  0.00000000E+00
  0.00000000E+00  0.00000000E+00  0.00000000E+00
  0.00000000E+00  0.00000000E+00  0.00000000E+00
  0.00000000E+00  0.00000000E+00  0.00000000E+00
  0.00000000E+00  0.00000000E+00  0.00000000E+00
  0.00000000E+00  0.00000000E+00  0.00000000E+00
  0.00000000E+00  0.00000000E+00  0.00000000E+00
  0.00000000E+00  0.00000000E+00  0.00000000E+00
  0.00000000E+00  0.00000000E+00  0.00000000E+00
  0.00000000E+00  0.00000000E+00  0.00000000E+00
  0.00000000E+00  0.00000000E+00  0.00000000E+00
  0.00000000E+00  0.00000000E+00  0.00000000E+00
  0.00000000E+00  0.00000000E+00  0.00000000E+00
  0.00000000E+00  0.00000000E+00  0.00000000E+00
  0.00000000E+00  0.00000000E+00  0.00000000E+00
  0.00000000E+00  0.00000000E+00  0.00000000E+00
  0.00000000E+00  0.00000000E+00  0.00000000E+00
  0.00000000E+00  0.00000000E+00  0.00000000E+00
  0.00000000E+00  0.00000000E+00  0.00000000E+00
  0.00000000E+00  0.00000000E+00  0.00000000E+00
  0.00000000E+00  0.00000000E+00  0.00000000E+00
  0.00000000E+00  0.00000000E+00  0.00000000E+00
  0.00000000E+00  0.00000000E+00  0.00000000E+00
  0.00000000E+00  0.00000000E+00  0.00000000E+00
  0.00000000E+00  0.00000000E+00  0.00000000E+00
  0.00000000E+00  0.00000000E+00  0.00000000E+00
  0.00000000E+00  0.00000000E+00  0.00000000E+00
  0.00000000E+00  0.00000000E+00  0.00000000E+00
  0.00000000E+00  0.00000000E+00  0.00000000E+00
  0.00000000E+00  0.00000000E+00  0.00000000E+00
  0.00000000E+00  0.00000000E+00  0.00000000E+00
  0.00000000E+00  0.00000000E+00  0.00000000E+00
  0.00000000E+00  0.00000000E+00  0.00000000E+00
  0.00000000E+00  0.00000000E+00  0.00000000E+00
  0.00000000E+00  0.00000000E+00  0.00000000E+00
  0.00000000E+00  0.00000000E+00  0.00000000E+00
  0.00000000E+00  0.00000000E+00  0.00000000E+00
  0.00000000E+00  0.00000000E+00  0.00000000E+00
  0.00000000E+00  0.00000000E+00  0.00000000E+00
  0.00000000E+00  0.00000000E+00  0.00000000E+00
  0.00000000E+00  0.00000000E+00  0.00000000E+00
  0.00000000E+00  0.00000000E+00  0.00000000E+00
  0.00000000E+00  0.00000000E+00  0.00000000E+00
  0.00000000E+00  0.00000000E+00  0.00000000E+00
  0.00000000E+00  0.00000000E+00  0.00000000E+00
  0.00000000E+00  0.00000000E+00  0.00000000E+00
  0.00000000E+00  0.00000000E+00  0.00000000E+00
  0.00000000E+00  0.00000000E+00  0.00000000E+00
  0.00000000E+00  0.00000000E+00  0.00000000E+00
  0.00000000E+00  0.00000000E+00  0.00000000E+00
  0.00000000E+00  0.00000000E+00  0.00000000E+00
  0.00000000E+00  0.00000000E+00  0.00000000E+00
  0.00000000E+00  0.00000000E+00  0.00000000E+00
  0.00000000E+00  0.00000000E+00  0.00000000E+00
  0.00000000E+00  0.00000000E+00  0.00000000E+00
  0.00000000E+00  0.00000000E+00  0.00000000E+00
  0.00000000E+00  0.00000000E+00  0.00000000E+00
  0.00000000E+00  0.00000000E+00  0.00000000E+00
  0.00000000E+00  0.00000000E+00  0.00000000E+00
  0.00000000E+00  0.00000000E+00  0.00000000E+00
  0.00000000E+00  0.00000000E+00  0.00000000E+00
  0.00000000E+00  0.00000000E+00  0.00000000E+00
  0.00000000E+00  0.00000000E+00  0.00000000E+00
  0.00000000E+00  0.00000000E+00  0.00000000E+00
  0.00000000E+00  0.00000000E+00  0.00000000E+00
  0.00000000E+00  0.00000000E+00  0.00000000E+00
  0.00000000E+00  0.00000000E+00  0.00000000E+00
  0.00000000E+00  0.00000000E+00  0.00000000E+00
  0.00000000E+00  0.00000000E+00  0.00000000E+00
  0.00000000E+00  0.00000000E+00  0.00000000E+00
  0.00000000E+00  0.00000000E+00  0.00000000E+00
  0.00000000E+00  0.00000000E+00  0.00000000E+00
  0.00000000E+00  0.00000000E+00  0.00000000E+00
  0.00000000E+00  0.00000000E+00  0.00000000E+00
