Primitive Cell                          
   1.00000000000000     
    31.9575379956255468   -0.0431280678700566    0.0000000000000000
   -16.0159297449454350   27.7249978719270835    0.0000000000000000
     0.0000000000000000    0.0000000000000000   20.0000000000000000
   H    C    O    N 
    36    66    12    14
Direct
  0.4020064626388731  0.7002438579170231  0.4037532845230416
  0.4486817199001436  0.6584524562021414  0.4029659840245259
  0.2973395145660902  0.5915108206094146  0.5357601117358115
  0.3424739018102088  0.5480686543737008  0.5321987728745228
  0.4597262852904151  0.5992916712944805  0.3679130670901642
  0.4061131210182793  0.5430534041493047  0.5658954665752702
  0.4019509836112150  0.7332641322516835  0.5364456843731134
  0.2643354067350430  0.5920530160456892  0.4033133753892244
  0.3358181877082842  0.8173479729083653  0.4020318625131551
  0.2937403424809091  0.7288004947915354  0.4030831476143888
  0.4456636942914400  0.8219383931824495  0.5327339947699485
  0.2606986344655766  0.6960288421319234  0.5366963363908752
  0.1718386187026582  0.6510506508165150  0.5333939014946480
  0.1755895417601963  0.5455757629149218  0.4026714879095579
  0.3961955062020621  0.8873734889717610  0.3663712027771879
  0.1028995264431600  0.5861696634707982  0.5674542741103394
  0.6264165263942800  0.1941634365563161  0.5551039808217979
  0.6721988248256707  0.2836574761603217  0.5521418039986372
  0.5759512169366943  0.2823264913388570  0.4001145978996945
  0.5308756447868177  0.1928319233176836  0.4017584868911968
  0.5747921951684418  0.3192223034930421  0.5496721402807765
  0.5310081673638152  0.3648618946781994  0.5517277987345182
  0.7098149126131474  0.3203126642938798  0.4012947163079588
  0.7994880169043554  0.3648416969255521  0.4026465100409524
  0.7987429078606922  0.4608533985081920  0.5532616379585136
  0.7091108126823258  0.4170412240211689  0.5506028695248659
  0.6724331349406185  0.4169681713597626  0.4009757728922096
  0.6280135426668352  0.4619994144400295  0.4018743604199742
  0.5506476085414675  0.1243840112817693  0.3733419642988096
  0.1056566725321346  0.5368023799481634  0.3667570127889448
  0.8688541468011195  0.4528923985260889  0.3728108116894830
  0.5409769578947063  0.4447635635729270  0.3716672523843414
  0.5346564608448077  0.1269742774679372  0.5877625605691250
  0.4500701908255493  0.8906094477540449  0.5661425236959587
  0.8652579945789185  0.4363719012535725  0.5876635591657902
  0.5549481091998487  0.4544966384324027  0.5869521942257165
  0.3891203739650138  0.6670062049110470  0.4322543197929463
  0.4151172729017247  0.6429213793995459  0.4315286333974697
  0.3994233508562175  0.5997274926955640  0.4673929488107404
  0.3563283503915216  0.5817909702954083  0.5045041863276225
  0.3304401124749816  0.6060161834741535  0.5063474079855013
  0.4277164322248908  0.5749532430716755  0.4667868830920554
  0.4821475699657682  0.5288510815885346  0.4724385945004101
  0.4856546390013321  0.5572673712821796  0.4167465025236865
  0.4576733585028023  0.5791281415815419  0.4128902087051856
  0.4274355390649092  0.5467688057018307  0.5212503437076563
  0.3464301739189324  0.6490114964727596  0.4700553573015611
  0.3447583106941465  0.7247039103844415  0.4700104821852236
  0.2688606999061989  0.6472617350028216  0.4702638295917154
  0.3269422460823392  0.7492677238608039  0.4317933631157587
  0.3511714543433015  0.7993687232157569  0.4309318690071464
  0.3943032963524189  0.8269664802206478  0.4671105262828306
  0.4120152260786512  0.8019423529819960  0.5047412586332811
  0.3876494341258692  0.7518103553280540  0.5066794627168250
  0.2419350163418557  0.6631124570346500  0.5070559754217427
  0.1917004285479678  0.6373400677817997  0.5053602611430534
  0.1663989269907304  0.5945484550009894  0.4678347903255471
  0.1938072681634964  0.5789527584931733  0.4315079544145561
  0.2440129901963886  0.6048250054365383  0.4321447212075995
  0.4192193287417965  0.8800458065931380  0.4662867281640715
  0.1132200657379627  0.5664493538844582  0.4671371799136779
  0.0852489798729792  0.5656802443806086  0.5222514832333758
  0.6269611540173372  0.2888723756306817  0.4761236632625696
  0.7035604678339951  0.3656663598207857  0.4759528384565996
  0.6266651910129681  0.3652390435973913  0.4754345195405136
  0.5864193799524529  0.3506218108671675  0.5174700416181537
  0.5619775257352728  0.3763546000713518  0.5184898929197033
  0.5763907358238924  0.4167292587970692  0.4769664328331444
  0.6161399636307081  0.4305793667228741  0.4341893900919658
  0.6412431061276749  0.4055079370973615  0.4336740061754725
  0.6410826364278392  0.2635840777383152  0.5194282108696839
  0.6152768090298011  0.2133773122412777  0.5209462332634160
  0.5753548702091535  0.1870749374862797  0.4786341501880074
  0.5619373544051172  0.2126506490964530  0.4347237766697276
  0.5870497961128649  0.2628441680830065  0.4337408876658415
  0.7294703211179510  0.3513181527394380  0.4342451343147360
  0.7797623324098737  0.3764694686685957  0.4350340668103101
  0.8055517674014752  0.4160060327383590  0.4780948016691724
  0.7793630623542782  0.4300959021978414  0.5197338901984310
  0.7290679298075986  0.4056262896265395  0.5183936912550990
  0.4649104647831095  0.9805414516713782  0.4717156217453464
  0.4374542209869361  0.9554756531555881  0.4154001475901907
  0.4157333362731634  0.9056408335969905  0.4117066314141766
  0.4918727062023009  0.0337178448236770  0.4764796220754661
  0.5473367101991258  0.1338587462542904  0.4803312839203215
  0.5367479472858250  0.1063258076100055  0.4213522598864756
  0.0124892108142305  0.5119008077598863  0.4725320305709388
  0.0374717922331911  0.5098095680298869  0.4159167443948704
  0.0874268428103449  0.5377824058812450  0.4122859380289157
  0.9592195374731247  0.4858002195430657  0.4770976210811853
  0.8588539684947065  0.4411755383614633  0.4799582544584169
  0.8867090179143986  0.4575219219278566  0.4211127322568728
  0.5077053649636980  0.5012554777506466  0.4767757143376912
  0.5514725525942410  0.4449519632798129  0.4789611827372582
  0.5359798457536087  0.4574095181946092  0.4201864976211596
  0.4467705447995414  0.9081094273402073  0.5211328015846988
  0.4997865418785565  0.0584275148852598  0.5375217473815255
  0.5287013238081286  0.1083245291848982  0.5400629210656120
  0.9341329922484363  0.4695483721341560  0.5380282034437727
  0.8841636169640310  0.4486261628323192  0.5400233461122284
  0.5228973617095605  0.4912625239676061  0.5377368925097556
  0.5434293425141874  0.4619788032013901  0.5393119836769387
  0.5036423484933579  0.5600791907083646  0.3040078393345382
  0.5630897383334599  0.5839194605820666  0.3769620854529947
  0.4369894168236641  0.9708459320969922  0.3023452840018948
  0.4109127217948370  0.0055584044163481  0.3732415531342212
  0.0210065216758437  0.4954028677708280  0.3028415687194865
  0.9880172945484276  0.4334649968825914  0.3721665749281655
  0.5007701212333586  0.0422733347036939  0.6503481468035091
  0.4306623259190658  0.0079029337809615  0.5977556705297715
  0.9497597669110007  0.4878538978357909  0.6506139775260777
  0.9835559316818063  0.4508139754898721  0.6004115187117236
  0.5032064471737812  0.4865907844760997  0.6500688688195453
  0.5411616786780229  0.5583411223726671  0.6023697836372719
  0.5201451399750141  0.5672175158608965  0.3615111216010476
  0.4525614305475827  0.5239216893149532  0.5232991931752196
  0.3200265537082458  0.6736415664286923  0.4713331904999691
  0.6524060312473026  0.3399505421137121  0.4753824997346996
  0.5111226979680339  0.0582897554599953  0.4196903134642298
  0.4283804594766281  0.9798374609436777  0.3592213304146625
  0.9348406086509868  0.4799149447476196  0.4199192179892393
  0.0129163780071906  0.4769698851106270  0.3591749014296042
  0.5140062946880519  0.4834278312590925  0.4192785933888743
  0.4693802307659851  0.9560959947629968  0.5231561184582532
  0.4751926626577472  0.0336359386755589  0.6000092482664385
  0.0371686637677513  0.5404254114405447  0.5242580840298245
  0.9583754035840073  0.4701327889607114  0.6011859678049802
  0.5216081481431800  0.5138181437619807  0.6015795262512071
 
  0.00000000E+00  0.00000000E+00  0.00000000E+00
  0.00000000E+00  0.00000000E+00  0.00000000E+00
  0.00000000E+00  0.00000000E+00  0.00000000E+00
  0.00000000E+00  0.00000000E+00  0.00000000E+00
  0.00000000E+00  0.00000000E+00  0.00000000E+00
  0.00000000E+00  0.00000000E+00  0.00000000E+00
  0.00000000E+00  0.00000000E+00  0.00000000E+00
  0.00000000E+00  0.00000000E+00  0.00000000E+00
  0.00000000E+00  0.00000000E+00  0.00000000E+00
  0.00000000E+00  0.00000000E+00  0.00000000E+00
  0.00000000E+00  0.00000000E+00  0.00000000E+00
  0.00000000E+00  0.00000000E+00  0.00000000E+00
  0.00000000E+00  0.00000000E+00  0.00000000E+00
  0.00000000E+00  0.00000000E+00  0.00000000E+00
  0.00000000E+00  0.00000000E+00  0.00000000E+00
  0.00000000E+00  0.00000000E+00  0.00000000E+00
  0.00000000E+00  0.00000000E+00  0.00000000E+00
  0.00000000E+00  0.00000000E+00  0.00000000E+00
  0.00000000E+00  0.00000000E+00  0.00000000E+00
  0.00000000E+00  0.00000000E+00  0.00000000E+00
  0.00000000E+00  0.00000000E+00  0.00000000E+00
  0.00000000E+00  0.00000000E+00  0.00000000E+00
  0.00000000E+00  0.00000000E+00  0.00000000E+00
  0.00000000E+00  0.00000000E+00  0.00000000E+00
  0.00000000E+00  0.00000000E+00  0.00000000E+00
  0.00000000E+00  0.00000000E+00  0.00000000E+00
  0.00000000E+00  0.00000000E+00  0.00000000E+00
  0.00000000E+00  0.00000000E+00  0.00000000E+00
  0.00000000E+00  0.00000000E+00  0.00000000E+00
  0.00000000E+00  0.00000000E+00  0.00000000E+00
  0.00000000E+00  0.00000000E+00  0.00000000E+00
  0.00000000E+00  0.00000000E+00  0.00000000E+00
  0.00000000E+00  0.00000000E+00  0.00000000E+00
  0.00000000E+00  0.00000000E+00  0.00000000E+00
  0.00000000E+00  0.00000000E+00  0.00000000E+00
  0.00000000E+00  0.00000000E+00  0.00000000E+00
  0.00000000E+00  0.00000000E+00  0.00000000E+00
  0.00000000E+00  0.00000000E+00  0.00000000E+00
  0.00000000E+00  0.00000000E+00  0.00000000E+00
  0.00000000E+00  0.00000000E+00  0.00000000E+00
  0.00000000E+00  0.00000000E+00  0.00000000E+00
  0.00000000E+00  0.00000000E+00  0.00000000E+00
  0.00000000E+00  0.00000000E+00  0.00000000E+00
  0.00000000E+00  0.00000000E+00  0.00000000E+00
  0.00000000E+00  0.00000000E+00  0.00000000E+00
  0.00000000E+00  0.00000000E+00  0.00000000E+00
  0.00000000E+00  0.00000000E+00  0.00000000E+00
  0.00000000E+00  0.00000000E+00  0.00000000E+00
  0.00000000E+00  0.00000000E+00  0.00000000E+00
  0.00000000E+00  0.00000000E+00  0.00000000E+00
  0.00000000E+00  0.00000000E+00  0.00000000E+00
  0.00000000E+00  0.00000000E+00  0.00000000E+00
  0.00000000E+00  0.00000000E+00  0.00000000E+00
  0.00000000E+00  0.00000000E+00  0.00000000E+00
  0.00000000E+00  0.00000000E+00  0.00000000E+00
  0.00000000E+00  0.00000000E+00  0.00000000E+00
  0.00000000E+00  0.00000000E+00  0.00000000E+00
  0.00000000E+00  0.00000000E+00  0.00000000E+00
  0.00000000E+00  0.00000000E+00  0.00000000E+00
  0.00000000E+00  0.00000000E+00  0.00000000E+00
  0.00000000E+00  0.00000000E+00  0.00000000E+00
  0.00000000E+00  0.00000000E+00  0.00000000E+00
  0.00000000E+00  0.00000000E+00  0.00000000E+00
  0.00000000E+00  0.00000000E+00  0.00000000E+00
  0.00000000E+00  0.00000000E+00  0.00000000E+00
  0.00000000E+00  0.00000000E+00  0.00000000E+00
  0.00000000E+00  0.00000000E+00  0.00000000E+00
  0.00000000E+00  0.00000000E+00  0.00000000E+00
  0.00000000E+00  0.00000000E+00  0.00000000E+00
  0.00000000E+00  0.00000000E+00  0.00000000E+00
  0.00000000E+00  0.00000000E+00  0.00000000E+00
  0.00000000E+00  0.00000000E+00  0.00000000E+00
  0.00000000E+00  0.00000000E+00  0.00000000E+00
  0.00000000E+00  0.00000000E+00  0.00000000E+00
  0.00000000E+00  0.00000000E+00  0.00000000E+00
  0.00000000E+00  0.00000000E+00  0.00000000E+00
  0.00000000E+00  0.00000000E+00  0.00000000E+00
  0.00000000E+00  0.00000000E+00  0.00000000E+00
  0.00000000E+00  0.00000000E+00  0.00000000E+00
  0.00000000E+00  0.00000000E+00  0.00000000E+00
  0.00000000E+00  0.00000000E+00  0.00000000E+00
  0.00000000E+00  0.00000000E+00  0.00000000E+00
  0.00000000E+00  0.00000000E+00  0.00000000E+00
  0.00000000E+00  0.00000000E+00  0.00000000E+00
  0.00000000E+00  0.00000000E+00  0.00000000E+00
  0.00000000E+00  0.00000000E+00  0.00000000E+00
  0.00000000E+00  0.00000000E+00  0.00000000E+00
  0.00000000E+00  0.00000000E+00  0.00000000E+00
  0.00000000E+00  0.00000000E+00  0.00000000E+00
  0.00000000E+00  0.00000000E+00  0.00000000E+00
  0.00000000E+00  0.00000000E+00  0.00000000E+00
  0.00000000E+00  0.00000000E+00  0.00000000E+00
  0.00000000E+00  0.00000000E+00  0.00000000E+00
  0.00000000E+00  0.00000000E+00  0.00000000E+00
  0.00000000E+00  0.00000000E+00  0.00000000E+00
  0.00000000E+00  0.00000000E+00  0.00000000E+00
  0.00000000E+00  0.00000000E+00  0.00000000E+00
  0.00000000E+00  0.00000000E+00  0.00000000E+00
  0.00000000E+00  0.00000000E+00  0.00000000E+00
  0.00000000E+00  0.00000000E+00  0.00000000E+00
  0.00000000E+00  0.00000000E+00  0.00000000E+00
  0.00000000E+00  0.00000000E+00  0.00000000E+00
  0.00000000E+00  0.00000000E+00  0.00000000E+00
  0.00000000E+00  0.00000000E+00  0.00000000E+00
  0.00000000E+00  0.00000000E+00  0.00000000E+00
  0.00000000E+00  0.00000000E+00  0.00000000E+00
  0.00000000E+00  0.00000000E+00  0.00000000E+00
  0.00000000E+00  0.00000000E+00  0.00000000E+00
  0.00000000E+00  0.00000000E+00  0.00000000E+00
  0.00000000E+00  0.00000000E+00  0.00000000E+00
  0.00000000E+00  0.00000000E+00  0.00000000E+00
  0.00000000E+00  0.00000000E+00  0.00000000E+00
  0.00000000E+00  0.00000000E+00  0.00000000E+00
  0.00000000E+00  0.00000000E+00  0.00000000E+00
  0.00000000E+00  0.00000000E+00  0.00000000E+00
  0.00000000E+00  0.00000000E+00  0.00000000E+00
  0.00000000E+00  0.00000000E+00  0.00000000E+00
  0.00000000E+00  0.00000000E+00  0.00000000E+00
  0.00000000E+00  0.00000000E+00  0.00000000E+00
  0.00000000E+00  0.00000000E+00  0.00000000E+00
  0.00000000E+00  0.00000000E+00  0.00000000E+00
  0.00000000E+00  0.00000000E+00  0.00000000E+00
  0.00000000E+00  0.00000000E+00  0.00000000E+00
  0.00000000E+00  0.00000000E+00  0.00000000E+00
  0.00000000E+00  0.00000000E+00  0.00000000E+00
  0.00000000E+00  0.00000000E+00  0.00000000E+00
  0.00000000E+00  0.00000000E+00  0.00000000E+00
  0.00000000E+00  0.00000000E+00  0.00000000E+00
