Primitive Cell                          
   1.00000000000000     
    29.8167308731463123    0.0426993252022195    0.0000000000000000
   -14.8713867513855202   25.8308179871623551    0.0000000000000000
     0.0000000000000000    0.0000000000000000   20.0000000000000000
   O    H    C    N 
    12    24    54    12
Direct
  0.4501278613883599  0.7833568153442911  0.5305985422037196
  0.3218086415050720  0.5406950977148171  0.5298665429715186
  0.2074838201519142  0.6693225692490401  0.5332981649474746
  0.5375482430464231  0.2105329962111853  0.4536069956798272
  0.6635206198783337  0.4546225395785370  0.4536500424879577
  0.7814641972644978  0.3281790790176302  0.4554677069894453
  0.5556351645424726  0.9419804770360471  0.6258287972087757
  0.6087265921073453  0.0490379838557189  0.6307910040538189
  0.3764797784738292  0.4358946454537218  0.6252088540691716
  0.4276847457014910  0.3796898911118092  0.6243019152713316
  0.0481040393483241  0.6166833306672643  0.6254712658285229
  0.9410925413822540  0.5628113953678167  0.6295785655543753
  0.2972497918494454  0.7293870062923560  0.5120423498436040
  0.4203030970977082  0.6935892761472786  0.5089010125792655
  0.2618763883262147  0.5707345340197989  0.5104220073805337
  0.6889622977370848  0.2653980537330369  0.4770348017575330
  0.5669550315688738  0.3029215015600215  0.4751451668976827
  0.7260572879148413  0.4246897414058139  0.4760421545998810
  0.6152479179730932  0.1277750778339097  0.5785506480251783
  0.4816343494619559  0.8651582317260846  0.5719457339473166
  0.6276038370532291  0.2035983146170892  0.5286572230072295
  0.5017198507734548  0.3753131370261258  0.5748747235989811
  0.3721119215442243  0.5088438215114053  0.5696519988232822
  0.5658487826746565  0.3639187815527407  0.5261240229458934
  0.8626503024869550  0.4895635659254580  0.5782866015244892
  0.1253717764514519  0.6196078303028685  0.5722688725864344
  0.7872928541685908  0.4252429336333563  0.5289598334047270
  0.5014469602359455  0.1235897050062889  0.4398592358190641
  0.3740045843018436  0.8776511268448743  0.4384079073779716
  0.3581056621514662  0.7969782526452889  0.4742918278790924
  0.6128882288267192  0.4915734023758844  0.4403182715171212
  0.4915928573493531  0.6167646647947578  0.4361505044266067
  0.4265875500761425  0.6323797627062362  0.4719624490331498
  0.8684295045134292  0.3787187229659637  0.4432667044082237
  0.1140491258725689  0.4993773135606361  0.4398899945515424
  0.1943084870819192  0.5644000148457451  0.4749830969518101
  0.3418473631513024  0.6270995633446717  0.5056115139394208
  0.2891763137314314  0.6121510056217687  0.5065552343289639
  0.2736428549491947  0.6492633599068967  0.5072152835488239
  0.3112400606495669  0.7019326618499235  0.5074167053106393
  0.3788628804826857  0.6796239748461730  0.5056838134263586
  0.3544740683683187  0.5843111960805771  0.5109732396625049
  0.2183808668132627  0.6366385620642561  0.5138525094089132
  0.6456203396149789  0.3687854388378327  0.4791502384928066
  0.6981770450455329  0.3833770125696176  0.4792916322877687
  0.7132845893575279  0.3459016367167891  0.4802130658485382
  0.6754766437547559  0.2933517699797150  0.4798446120245217
  0.6082736103789230  0.3163133077209181  0.4787822250581115
  0.6329248715290845  0.4116635465964720  0.4766110037732432
  0.7687690034578409  0.3585836384925827  0.4785985115233800
  0.5630713648841095  0.1341979866806611  0.5077094183943629
  0.5072058989354247  0.0272373967716888  0.5108087939463033
  0.5523797935255672  0.0537757580323586  0.5502849257254283
  0.5802534940360147  0.1076495261579993  0.5481530795027467
  0.4777367785339663  0.9700139784476391  0.5099746530300493
  0.4679318359414282  0.8871287790552955  0.5436639976799142
  0.4949006376574445  0.9411149774264729  0.5474047239093878
  0.5409618324680849  0.9663266689766701  0.5917369610349468
  0.5710991891624673  0.0263446438794759  0.5940078841194776
  0.5610329651652890  0.4286803455698092  0.5058856250713859
  0.5093338509715082  0.4841418593605411  0.5089607055631689
  0.4904600321470198  0.4384144975040627  0.5474304814219835
  0.5167673142424363  0.4107463450622362  0.5452755099956121
  0.4811041997489127  0.5132498723459449  0.5079008514130692
  0.4077394182253116  0.5226444786452973  0.5414047809218587
  0.4349973810794268  0.4958025504879515  0.5451362628755660
  0.4145203374224522  0.4497735307362376  0.5895639326594022
  0.4436578532757594  0.4187379999832856  0.5899322064791832
  0.8570724207553937  0.4304055042323824  0.5090473283797010
  0.9639649479015802  0.4822263536376781  0.5121132179034475
  0.9370152898260713  0.5009825779471484  0.5507454875271520
  0.8831478513625228  0.4746119443656838  0.5486138232105375
  0.0211491522195928  0.5104139612842644  0.5110436570024461
  0.1036643909584143  0.5838340396104087  0.5442920639038391
  0.0496915873025046  0.5566870921778175  0.5479283030682183
  0.0240835652001294  0.5775832338902305  0.5916117103682055
  0.9640649751692791  0.5476043697236292  0.5935884117344017
  0.3637750250236422  0.7173371408680396  0.5063441449777386
  0.4064236329618538  0.7725871563512641  0.5121477774986829
  0.6230029356667330  0.2783602885900578  0.4797080152257465
  0.5803059287962640  0.2229145117170219  0.4774049473135875
  0.5167792735220971  0.1044121471806889  0.4711083306026254
  0.4090196983904804  0.8952580012115661  0.4694433205390425
  0.4239122285402814  0.8631366771702389  0.5033480679303963
  0.5778409228815633  0.4755635151022091  0.4704575444513779
  0.4744486360350280  0.5817973772535439  0.4672988745917479
  0.4274823088661961  0.5667323886236773  0.5011948587363335
  0.8872684774862165  0.4136998999782620  0.4735435644192449
  0.0961908742974558  0.5167016666660018  0.4707709885220055
  0.1279926633610557  0.5637793147878227  0.5044442683883616
  0.5930477085704737  0.1881595688940507  0.5046237814007952
  0.5851828887373571  0.3987646725471663  0.5028041364344844
  0.8031167298442909  0.4061090922447832  0.5056868432423229
  0.4902617360460155  0.0529030036059623  0.4727038421362550
  0.4347149086892443  0.9465309676364484  0.4721403404167503
  0.3930359275650304  0.8095274586948449  0.4963755772272620
  0.5525008608145896  0.5018577892309395  0.4719498951096810
  0.5003125614788644  0.5563008411462249  0.4701415470701349
  0.4045357828703970  0.5975408135429205  0.4943692353895557
  0.9387600370995628  0.4390612566960144  0.4750715459775137
  0.0449465242785223  0.4909674753231101  0.4734983008488527
  0.1816011664927615  0.5865524346751911  0.4975244676212185
 
  0.00000000E+00  0.00000000E+00  0.00000000E+00
  0.00000000E+00  0.00000000E+00  0.00000000E+00
  0.00000000E+00  0.00000000E+00  0.00000000E+00
  0.00000000E+00  0.00000000E+00  0.00000000E+00
  0.00000000E+00  0.00000000E+00  0.00000000E+00
  0.00000000E+00  0.00000000E+00  0.00000000E+00
  0.00000000E+00  0.00000000E+00  0.00000000E+00
  0.00000000E+00  0.00000000E+00  0.00000000E+00
  0.00000000E+00  0.00000000E+00  0.00000000E+00
  0.00000000E+00  0.00000000E+00  0.00000000E+00
  0.00000000E+00  0.00000000E+00  0.00000000E+00
  0.00000000E+00  0.00000000E+00  0.00000000E+00
  0.00000000E+00  0.00000000E+00  0.00000000E+00
  0.00000000E+00  0.00000000E+00  0.00000000E+00
  0.00000000E+00  0.00000000E+00  0.00000000E+00
  0.00000000E+00  0.00000000E+00  0.00000000E+00
  0.00000000E+00  0.00000000E+00  0.00000000E+00
  0.00000000E+00  0.00000000E+00  0.00000000E+00
  0.00000000E+00  0.00000000E+00  0.00000000E+00
  0.00000000E+00  0.00000000E+00  0.00000000E+00
  0.00000000E+00  0.00000000E+00  0.00000000E+00
  0.00000000E+00  0.00000000E+00  0.00000000E+00
  0.00000000E+00  0.00000000E+00  0.00000000E+00
  0.00000000E+00  0.00000000E+00  0.00000000E+00
  0.00000000E+00  0.00000000E+00  0.00000000E+00
  0.00000000E+00  0.00000000E+00  0.00000000E+00
  0.00000000E+00  0.00000000E+00  0.00000000E+00
  0.00000000E+00  0.00000000E+00  0.00000000E+00
  0.00000000E+00  0.00000000E+00  0.00000000E+00
  0.00000000E+00  0.00000000E+00  0.00000000E+00
  0.00000000E+00  0.00000000E+00  0.00000000E+00
  0.00000000E+00  0.00000000E+00  0.00000000E+00
  0.00000000E+00  0.00000000E+00  0.00000000E+00
  0.00000000E+00  0.00000000E+00  0.00000000E+00
  0.00000000E+00  0.00000000E+00  0.00000000E+00
  0.00000000E+00  0.00000000E+00  0.00000000E+00
  0.00000000E+00  0.00000000E+00  0.00000000E+00
  0.00000000E+00  0.00000000E+00  0.00000000E+00
  0.00000000E+00  0.00000000E+00  0.00000000E+00
  0.00000000E+00  0.00000000E+00  0.00000000E+00
  0.00000000E+00  0.00000000E+00  0.00000000E+00
  0.00000000E+00  0.00000000E+00  0.00000000E+00
  0.00000000E+00  0.00000000E+00  0.00000000E+00
  0.00000000E+00  0.00000000E+00  0.00000000E+00
  0.00000000E+00  0.00000000E+00  0.00000000E+00
  0.00000000E+00  0.00000000E+00  0.00000000E+00
  0.00000000E+00  0.00000000E+00  0.00000000E+00
  0.00000000E+00  0.00000000E+00  0.00000000E+00
  0.00000000E+00  0.00000000E+00  0.00000000E+00
  0.00000000E+00  0.00000000E+00  0.00000000E+00
  0.00000000E+00  0.00000000E+00  0.00000000E+00
  0.00000000E+00  0.00000000E+00  0.00000000E+00
  0.00000000E+00  0.00000000E+00  0.00000000E+00
  0.00000000E+00  0.00000000E+00  0.00000000E+00
  0.00000000E+00  0.00000000E+00  0.00000000E+00
  0.00000000E+00  0.00000000E+00  0.00000000E+00
  0.00000000E+00  0.00000000E+00  0.00000000E+00
  0.00000000E+00  0.00000000E+00  0.00000000E+00
  0.00000000E+00  0.00000000E+00  0.00000000E+00
  0.00000000E+00  0.00000000E+00  0.00000000E+00
  0.00000000E+00  0.00000000E+00  0.00000000E+00
  0.00000000E+00  0.00000000E+00  0.00000000E+00
  0.00000000E+00  0.00000000E+00  0.00000000E+00
  0.00000000E+00  0.00000000E+00  0.00000000E+00
  0.00000000E+00  0.00000000E+00  0.00000000E+00
  0.00000000E+00  0.00000000E+00  0.00000000E+00
  0.00000000E+00  0.00000000E+00  0.00000000E+00
  0.00000000E+00  0.00000000E+00  0.00000000E+00
  0.00000000E+00  0.00000000E+00  0.00000000E+00
  0.00000000E+00  0.00000000E+00  0.00000000E+00
  0.00000000E+00  0.00000000E+00  0.00000000E+00
  0.00000000E+00  0.00000000E+00  0.00000000E+00
  0.00000000E+00  0.00000000E+00  0.00000000E+00
  0.00000000E+00  0.00000000E+00  0.00000000E+00
  0.00000000E+00  0.00000000E+00  0.00000000E+00
  0.00000000E+00  0.00000000E+00  0.00000000E+00
  0.00000000E+00  0.00000000E+00  0.00000000E+00
  0.00000000E+00  0.00000000E+00  0.00000000E+00
  0.00000000E+00  0.00000000E+00  0.00000000E+00
  0.00000000E+00  0.00000000E+00  0.00000000E+00
  0.00000000E+00  0.00000000E+00  0.00000000E+00
  0.00000000E+00  0.00000000E+00  0.00000000E+00
  0.00000000E+00  0.00000000E+00  0.00000000E+00
  0.00000000E+00  0.00000000E+00  0.00000000E+00
  0.00000000E+00  0.00000000E+00  0.00000000E+00
  0.00000000E+00  0.00000000E+00  0.00000000E+00
  0.00000000E+00  0.00000000E+00  0.00000000E+00
  0.00000000E+00  0.00000000E+00  0.00000000E+00
  0.00000000E+00  0.00000000E+00  0.00000000E+00
  0.00000000E+00  0.00000000E+00  0.00000000E+00
  0.00000000E+00  0.00000000E+00  0.00000000E+00
  0.00000000E+00  0.00000000E+00  0.00000000E+00
  0.00000000E+00  0.00000000E+00  0.00000000E+00
  0.00000000E+00  0.00000000E+00  0.00000000E+00
  0.00000000E+00  0.00000000E+00  0.00000000E+00
  0.00000000E+00  0.00000000E+00  0.00000000E+00
  0.00000000E+00  0.00000000E+00  0.00000000E+00
  0.00000000E+00  0.00000000E+00  0.00000000E+00
  0.00000000E+00  0.00000000E+00  0.00000000E+00
  0.00000000E+00  0.00000000E+00  0.00000000E+00
  0.00000000E+00  0.00000000E+00  0.00000000E+00
  0.00000000E+00  0.00000000E+00  0.00000000E+00
