Primitive Cell                          
   1.00000000000000     
    16.5219242006554623   -1.0652212539132757    0.0000000000000000
    -1.1034006799130143   16.1850182368986530    0.0000000000000000
     0.0000000000000000    0.0000000000000000   20.0000000000000000
   H    N    O    C 
    40     8     2    47
Direct
  0.2514419292838994  0.0662160236675362  0.3680192167374869
  0.1365959006352924  0.1192858830689332  0.3094493299138108
  0.8483499046772138  0.1020198857991517  0.2683014963415786
  0.7064562680176820  0.0344315179815808  0.2912022334238955
  0.9957728064451956  0.8716122035683327  0.4318696523120522
  0.0225248668553988  0.1797451682077238  0.4754105136404263
  0.9822228549265262  0.1760638899100613  0.3606136489417509
  0.9907612126912326  0.1091929238811176  0.2929473332038413
  0.0064633697677579  0.5960668484889453  0.4118369838002280
  0.0060908028395872  0.3182435678069169  0.4527048254173920
  0.5268041313299889  0.8912849470441770  0.3727181942631077
  0.2750780972840374  0.9307082112848661  0.3986522979996039
  0.7858697293092689  0.9489548410064899  0.4801573609295815
  0.0896147620017089  0.9764150229485935  0.5278279969216371
  0.9084234604087555  0.7138504645496937  0.5964984658363690
  0.8450968994505388  0.8302920335404949  0.6462887194930858
  0.8504456644456440  0.1231580070524174  0.6772294213456647
  0.9253953049980623  0.2652796707297895  0.6579542737461210
  0.7851667490639542  0.9827197170336390  0.5845000801888176
  0.8456157590113804  0.9775965513000955  0.6557865455479828
  0.2761951464705064  0.5291647706274603  0.5493622899342938
  0.2879486112557146  0.5005752229987408  0.6343641687985553
  0.2277342421366200  0.5803440798492332  0.6137606184936644
  0.2222354572512373  0.3731160377037028  0.5208927056927450
  0.1538886465045337  0.3169210369912321  0.5785968514964139
  0.2522810253326568  0.3608746675935421  0.6051653020095245
  0.1087507114513144  0.5021750048005487  0.6785911222342662
  0.1723605551142882  0.4255794861173641  0.6997980575175689
  0.0755745538663106  0.3948055308308014  0.6613896544592706
  0.0566822603147941  0.7038961294443666  0.5720571717582956
  0.4668506815558331  0.8865112059608364  0.6483669056709118
  0.4231311610299500  0.9579116986615048  0.7003722525047067
  0.5047202822624257  0.9940175872420411  0.6451000637290676
  0.3202639705880728  0.8365200477354833  0.6095350855466251
  0.2571947311125626  0.9098158448223899  0.5791815671318190
  0.2877873520895449  0.9120108803625229  0.6642700823834744
  0.4229979907835144  0.0964649672921283  0.5917355515544784
  0.3456649159521845  0.0656873540694534  0.6520168684481078
  0.3198857329103859  0.0653925033975398  0.5656280373291693
  0.6566969206862368  0.9897772871193951  0.5044529605595827
  0.6552786920919900  0.9613614466678939  0.4008340222919529
  0.0160112820100053  0.3128182637612227  0.5575212567332670
  0.9925978407615332  0.7203879010456404  0.4830252503997556
  0.2407835436149171  0.9861748765539318  0.4860076955263111
  0.0354612838943282  0.5637187670038912  0.4461572039856350
  0.4947839605450284  0.9042725160498577  0.4142511205620849
  0.1035699611137204  0.5653055486813869  0.5487201470042322
  0.5008015635428578  0.9540498069435657  0.5242845744256073
  0.0050355909844484  0.4442336741139670  0.3846522179021292
  0.3744591888383653  0.8604836627339836  0.3616782945315435
  0.9630377158234893  0.8637075646382186  0.4792131383674061
  0.9817964073563417  0.1674900726704323  0.5180787380678851
  0.0325975967119092  0.0322686713328793  0.4447048653285819
  0.0468714748436270  0.0740412612610299  0.3834070105927836
  0.8962647180164609  0.0666659723834115  0.3626435787051392
  0.8796676131370305  0.0230054976174756  0.4230097503342307
  0.8338889041627979  0.0696150388031427  0.3155234607782376
  0.7551404809768627  0.0320422386510444  0.3275577992285008
  0.7369072849861240  0.9920785854733865  0.3891241241068215
  0.7998471067013853  0.9859060468070666  0.4351812108909883
  0.0986280458923758  0.0067484344932538  0.4792462047113233
  0.1769992399754230  0.0155845732424069  0.4513274258789721
  0.1902435085926655  0.0564386876463274  0.3892186862307483
  0.1259399855454433  0.0860587860944335  0.3567973697657791
  0.9469591494985963  0.0177981005722643  0.4761495845196961
  0.9799199836570978  0.1094763163812971  0.3472488875752759
  0.0629228909113593  0.4348950803912146  0.4949748550670421
  0.0328325419483448  0.4774477873846266  0.4367815182525234
  0.0291092452946131  0.3478466466195869  0.4998345531529367
  0.3707146068243148  0.9293869013476481  0.4689897533837666
  0.4097858429330685  0.8944137491011404  0.4107981326847465
  0.5366381785304881  0.9383415898431480  0.4677867896412096
  0.2901415125494324  0.9479903777572574  0.4509429011755159
  0.6240930509681277  0.9636458407545163  0.4596839354526523
  0.9403065153108585  0.0874896726204213  0.5282612133105005
  0.8922932852464953  0.0720860813099193  0.5860809781519123
  0.8885264371568766  0.9183671488092671  0.5694851349674082
  0.9326544370184280  0.9313026318525033  0.5094490199588364
  0.9573449292989409  0.7864368307129510  0.5113100344415855
  0.9149273774513773  0.7746444170088083  0.5723579637907648
  0.8796260470343711  0.8397619684992179  0.5997609573300977
  0.8868341454184545  0.1364918861573727  0.6319976315676215
  0.9283046694777610  0.2153628268027603  0.6218828103616829
  0.9757091232575092  0.2321302696511580  0.5638433802462686
  0.8493563069446353  0.9869324119970244  0.6013076179177332
  0.1099574467633246  0.4826120380669892  0.5431889600728397
  0.0622882792877277  0.6018225953386320  0.5039485113519859
  0.1698495515184533  0.4525566654878546  0.5933366888905098
  0.2448056038106259  0.5203646851159931  0.5978160009034141
  0.2006367807985185  0.3707706429266864  0.5729592264977086
  0.1285462600814853  0.4431628483954597  0.6627621003047466
  0.0375775099323548  0.6821756414314279  0.5215823937900339
  0.4177920989428117  0.9469993639062011  0.5273837274093438
  0.3848354147490198  0.9621994536381635  0.5973743250663119
  0.4493037109337905  0.9494963559075345  0.6507037314225457
  0.3075476428854316  0.9012705200381816  0.6128561072322967
  0.3671555113342819  0.0534210370120221  0.6013744175265074
 
  0.00000000E+00  0.00000000E+00  0.00000000E+00
  0.00000000E+00  0.00000000E+00  0.00000000E+00
  0.00000000E+00  0.00000000E+00  0.00000000E+00
  0.00000000E+00  0.00000000E+00  0.00000000E+00
  0.00000000E+00  0.00000000E+00  0.00000000E+00
  0.00000000E+00  0.00000000E+00  0.00000000E+00
  0.00000000E+00  0.00000000E+00  0.00000000E+00
  0.00000000E+00  0.00000000E+00  0.00000000E+00
  0.00000000E+00  0.00000000E+00  0.00000000E+00
  0.00000000E+00  0.00000000E+00  0.00000000E+00
  0.00000000E+00  0.00000000E+00  0.00000000E+00
  0.00000000E+00  0.00000000E+00  0.00000000E+00
  0.00000000E+00  0.00000000E+00  0.00000000E+00
  0.00000000E+00  0.00000000E+00  0.00000000E+00
  0.00000000E+00  0.00000000E+00  0.00000000E+00
  0.00000000E+00  0.00000000E+00  0.00000000E+00
  0.00000000E+00  0.00000000E+00  0.00000000E+00
  0.00000000E+00  0.00000000E+00  0.00000000E+00
  0.00000000E+00  0.00000000E+00  0.00000000E+00
  0.00000000E+00  0.00000000E+00  0.00000000E+00
  0.00000000E+00  0.00000000E+00  0.00000000E+00
  0.00000000E+00  0.00000000E+00  0.00000000E+00
  0.00000000E+00  0.00000000E+00  0.00000000E+00
  0.00000000E+00  0.00000000E+00  0.00000000E+00
  0.00000000E+00  0.00000000E+00  0.00000000E+00
  0.00000000E+00  0.00000000E+00  0.00000000E+00
  0.00000000E+00  0.00000000E+00  0.00000000E+00
  0.00000000E+00  0.00000000E+00  0.00000000E+00
  0.00000000E+00  0.00000000E+00  0.00000000E+00
  0.00000000E+00  0.00000000E+00  0.00000000E+00
  0.00000000E+00  0.00000000E+00  0.00000000E+00
  0.00000000E+00  0.00000000E+00  0.00000000E+00
  0.00000000E+00  0.00000000E+00  0.00000000E+00
  0.00000000E+00  0.00000000E+00  0.00000000E+00
  0.00000000E+00  0.00000000E+00  0.00000000E+00
  0.00000000E+00  0.00000000E+00  0.00000000E+00
  0.00000000E+00  0.00000000E+00  0.00000000E+00
  0.00000000E+00  0.00000000E+00  0.00000000E+00
  0.00000000E+00  0.00000000E+00  0.00000000E+00
  0.00000000E+00  0.00000000E+00  0.00000000E+00
  0.00000000E+00  0.00000000E+00  0.00000000E+00
  0.00000000E+00  0.00000000E+00  0.00000000E+00
  0.00000000E+00  0.00000000E+00  0.00000000E+00
  0.00000000E+00  0.00000000E+00  0.00000000E+00
  0.00000000E+00  0.00000000E+00  0.00000000E+00
  0.00000000E+00  0.00000000E+00  0.00000000E+00
  0.00000000E+00  0.00000000E+00  0.00000000E+00
  0.00000000E+00  0.00000000E+00  0.00000000E+00
  0.00000000E+00  0.00000000E+00  0.00000000E+00
  0.00000000E+00  0.00000000E+00  0.00000000E+00
  0.00000000E+00  0.00000000E+00  0.00000000E+00
  0.00000000E+00  0.00000000E+00  0.00000000E+00
  0.00000000E+00  0.00000000E+00  0.00000000E+00
  0.00000000E+00  0.00000000E+00  0.00000000E+00
  0.00000000E+00  0.00000000E+00  0.00000000E+00
  0.00000000E+00  0.00000000E+00  0.00000000E+00
  0.00000000E+00  0.00000000E+00  0.00000000E+00
  0.00000000E+00  0.00000000E+00  0.00000000E+00
  0.00000000E+00  0.00000000E+00  0.00000000E+00
  0.00000000E+00  0.00000000E+00  0.00000000E+00
  0.00000000E+00  0.00000000E+00  0.00000000E+00
  0.00000000E+00  0.00000000E+00  0.00000000E+00
  0.00000000E+00  0.00000000E+00  0.00000000E+00
  0.00000000E+00  0.00000000E+00  0.00000000E+00
  0.00000000E+00  0.00000000E+00  0.00000000E+00
  0.00000000E+00  0.00000000E+00  0.00000000E+00
  0.00000000E+00  0.00000000E+00  0.00000000E+00
  0.00000000E+00  0.00000000E+00  0.00000000E+00
  0.00000000E+00  0.00000000E+00  0.00000000E+00
  0.00000000E+00  0.00000000E+00  0.00000000E+00
  0.00000000E+00  0.00000000E+00  0.00000000E+00
  0.00000000E+00  0.00000000E+00  0.00000000E+00
  0.00000000E+00  0.00000000E+00  0.00000000E+00
  0.00000000E+00  0.00000000E+00  0.00000000E+00
  0.00000000E+00  0.00000000E+00  0.00000000E+00
  0.00000000E+00  0.00000000E+00  0.00000000E+00
  0.00000000E+00  0.00000000E+00  0.00000000E+00
  0.00000000E+00  0.00000000E+00  0.00000000E+00
  0.00000000E+00  0.00000000E+00  0.00000000E+00
  0.00000000E+00  0.00000000E+00  0.00000000E+00
  0.00000000E+00  0.00000000E+00  0.00000000E+00
  0.00000000E+00  0.00000000E+00  0.00000000E+00
  0.00000000E+00  0.00000000E+00  0.00000000E+00
  0.00000000E+00  0.00000000E+00  0.00000000E+00
  0.00000000E+00  0.00000000E+00  0.00000000E+00
  0.00000000E+00  0.00000000E+00  0.00000000E+00
  0.00000000E+00  0.00000000E+00  0.00000000E+00
  0.00000000E+00  0.00000000E+00  0.00000000E+00
  0.00000000E+00  0.00000000E+00  0.00000000E+00
  0.00000000E+00  0.00000000E+00  0.00000000E+00
  0.00000000E+00  0.00000000E+00  0.00000000E+00
  0.00000000E+00  0.00000000E+00  0.00000000E+00
  0.00000000E+00  0.00000000E+00  0.00000000E+00
  0.00000000E+00  0.00000000E+00  0.00000000E+00
  0.00000000E+00  0.00000000E+00  0.00000000E+00
  0.00000000E+00  0.00000000E+00  0.00000000E+00
  0.00000000E+00  0.00000000E+00  0.00000000E+00
