Primitive Cell                          
   1.00000000000000     
    29.4776783368182898   -0.0000000163372483    0.0000000000000000
   -14.7388391542606669   25.5284182924394685    0.0000000000000000
     0.0000000000000000    0.0000000000000000   20.0000000000000000
   N    C    H 
     6    66    48
Direct
  0.3871644895811457  0.6936593439811460  0.4954312126669933
  0.3064948543999932  0.6128355104188543  0.4954312126669933
  0.3063406560188540  0.6935051455999997  0.4954312126669933
  0.6128246395560950  0.3064846861965620  0.4952695627725987
  0.6936600466404741  0.3871753604439050  0.4952695627725987
  0.6935153138034380  0.3063399533595259  0.4952695627725987
  0.0277414371565641  0.5282846675832928  0.5658497135255018
  0.0272066699066897  0.4952915385022081  0.4541892948688115
  0.3590066483033070  0.7181561345288259  0.4955654536395642
  0.3591494862255260  0.6409933516966930  0.4955654536395642
  0.2818438654711741  0.6408505137744740  0.4955654536395642
  0.3881954272096024  0.6121306604962626  0.4972603795207533
  0.4429741774891625  0.6388559003784380  0.4907174843430866
  0.4703138910982076  0.6117358097415888  0.4940698174831226
  0.4439854877918279  0.5573569019703513  0.5051359345180870
  0.3890631887168112  0.5307593422559691  0.5108790672922936
  0.3614973864743831  0.5575677149383012  0.5066756968253969
  0.3878693395037374  0.7760647667133398  0.4972603795207533
  0.4424322850616988  0.8039296715360820  0.5066756968253969
  0.4692406577440309  0.8583038464608350  0.5108790672922936
  0.4426430980296487  0.8866285858214766  0.5051359345180870
  0.3882641902584112  0.8585780813566188  0.4940698174831226
  0.3611440996215620  0.8041182771107103  0.4907174843430866
  0.2239352332866602  0.6118045727903976  0.4972603795207533
  0.1960703284639180  0.6385026135256169  0.5066756968253969
  0.1416961535391650  0.6109368112831888  0.5108790672922936
  0.1133714141785234  0.5560145122081721  0.5051359345180870
  0.1414219186433812  0.5296861089017924  0.4940698174831226
  0.1958817228892826  0.5570258225108375  0.4907174843430866
  0.6408577363241434  0.2818383944920200  0.4953997886142574
  0.6409806581678907  0.3591422636758566  0.4953997886142574
  0.7181616055079729  0.3590193418321093  0.4953997886142574
  0.6121467446017732  0.3882245600080836  0.4971148285433102
  0.5575846337247796  0.3615496845174491  0.5065166059464019
  0.5307992315311196  0.3891352462860311  0.5107972972767811
  0.5574143201418522  0.4440614603017323  0.5051336087582143
  0.6118011378258785  0.4703795046374069  0.4941209336854300
  0.6388956093144458  0.4430158543054148  0.4906873858202587
  0.6117754399919164  0.2239221845936896  0.4971148285433102
  0.5569841456945852  0.1958797550090239  0.4906873858202587
  0.5296204953625931  0.1414216331884717  0.4941209336854300
  0.5559385396982677  0.1133528598401199  0.5051336087582143
  0.6108647537139689  0.1416639852450956  0.5107972972767811
  0.6384503154825509  0.1960349492073377  0.5065166059464019
  0.7760778154063104  0.3878532553982268  0.4971148285433102
  0.8041202449909761  0.3611043906855542  0.4906873858202587
  0.8585783668115283  0.3881988621741215  0.4941209336854300
  0.8866471401598801  0.4425856798581478  0.5051336087582143
  0.8583360147549044  0.4692007684688804  0.5107972972767811
  0.8039650507926623  0.4424153662752204  0.5065166059464019
  0.5289611227907045  0.4736920127119149  0.5090925112034554
  0.4736317772500342  0.5289238030312902  0.5090911568163463
  0.4717153324167072  0.4994567695732712  0.5658497135255018
  0.4994848619150929  0.4717537232929061  0.5658507980733134
  0.4425781595738485  0.4987428321313701  0.6282264126135857
  0.4988463050794252  0.4426570152229345  0.6282289216352410
  0.5263079872880851  0.0552691100787897  0.5090925112034554
  0.4710761969687098  0.9447079742187512  0.5090911568163463
  0.5005432304267288  0.9722585628434359  0.5658497135255018
  0.5282462767070939  0.0277311386221868  0.5658507980733134
  0.5012571678686299  0.9438353274424784  0.6282264126135857
  0.5573429847770655  0.0561892898564977  0.6282289216352410
  0.9447308899212103  0.4710388772092955  0.5090925112034554
  0.0552920257812488  0.5263682227499658  0.5090911568163463
  0.9722688613778132  0.5005151380849071  0.5658507980733134
  0.0561646725575216  0.5574218404261515  0.6282264126135857
  0.9438107101435023  0.5011536949205748  0.6282289216352410
  0.5319177545124276  0.5047485327924051  0.4541842689657472
  0.5047084614977919  0.5319151314044817  0.4541892948688115
  0.4952514672075949  0.0271692217200226  0.4541842689657472
  0.4680848685955183  0.9727933300933103  0.4541892948688115
  0.9728307782799774  0.4680822454875724  0.4541842689657472
  0.0425393418241313  0.5312609798408090  0.6719713257558695
  0.0486527614813781  0.4938397480990773  0.4105320204253786
  0.5115907541696245  0.8795590989571664  0.5183483350282145
  0.4631555142299391  0.7821096540771109  0.5110735217137830
  0.3671103001147387  0.8800252576841316  0.4893509029227232
  0.3188463972119493  0.7824301016985160  0.4834567159847651
  0.2178903459228891  0.6810458601528353  0.5110735217137830
  0.1204409010428336  0.6320316552124510  0.5183483350282145
  0.2175698983014840  0.5364162955134404  0.4834567159847651
  0.1199747423158684  0.4870850424305999  0.4893509029227232
  0.3189541398471647  0.5368444857700609  0.5110735217137830
  0.3679683447875490  0.4884092458303755  0.5183483350282145
  0.5129149575694001  0.6328896998852613  0.4893509029227232
  0.4635837044865596  0.6811536027880507  0.4834567159847651
  0.4870092347893120  0.1199842192532827  0.4895194732646573
  0.5363795264649482  0.2175730576442376  0.4834581247905803
  0.6319533224888190  0.1204051285723509  0.5182779780003131
  0.6809970747989098  0.2178353898759084  0.5108626277222399
  0.7824269423557624  0.3188064688207106  0.4834581247905803
  0.8800157807467173  0.3670250155360293  0.4895194732646573
  0.7821646101240916  0.4631616849230014  0.5108626277222399
  0.8795948714276491  0.5115481939164610  0.5182779780003131
  0.6811935311792965  0.4636204735350518  0.4834581247905803
  0.6329749844639707  0.5129907652106880  0.4895194732646573
  0.4884518060835390  0.3680466775111881  0.5182779780003131
  0.5368383150769986  0.3190029252010902  0.5108626277222399
  0.4261460315838690  0.5247038523321947  0.6242311735616397
  0.4687390201591910  0.5112783619833152  0.6719713257558695
  0.4102725983562863  0.4590605467016360  0.6396457860182068
  0.5248990250376053  0.4263317206205741  0.6242208250439845
  0.4592053507517022  0.4102721010718753  0.6396306827213678
  0.5113226796871970  0.4688150016415094  0.6719742842623333
  0.4752961476678053  0.9014421792516742  0.6242311735616397
  0.4887216380166848  0.9574606581758758  0.6719713257558695
  0.5409394532983640  0.9512120516546574  0.6396457860182068
  0.5736682793794259  0.0985673044170383  0.6242208250439845
  0.5897278989281318  0.0489332496798411  0.6396306827213678
  0.5311849983584906  0.0425076780456948  0.6719742842623333
  0.0985578207483258  0.5738539684161310  0.6242311735616397
  0.0487879483453426  0.5897274016437137  0.6396457860182068
  0.9014326955829617  0.4751009749623947  0.6242208250439845
  0.9510667503201589  0.5407946492482978  0.6396306827213678
  0.9574923219543052  0.4886773203128030  0.6719742842623333
  0.5061602519009227  0.5548130133823008  0.4105320204253786
  0.5548166440008018  0.5062239465655409  0.4105151979754069
  0.4451869866176992  0.9513472385186219  0.4105320204253786
  0.4937760534344591  0.0485926974352537  0.4105151979754069
  0.9514073025647463  0.4451833559991982  0.4105151979754069
 
  0.00000000E+00  0.00000000E+00  0.00000000E+00
  0.00000000E+00  0.00000000E+00  0.00000000E+00
  0.00000000E+00  0.00000000E+00  0.00000000E+00
  0.00000000E+00  0.00000000E+00  0.00000000E+00
  0.00000000E+00  0.00000000E+00  0.00000000E+00
  0.00000000E+00  0.00000000E+00  0.00000000E+00
  0.00000000E+00  0.00000000E+00  0.00000000E+00
  0.00000000E+00  0.00000000E+00  0.00000000E+00
  0.00000000E+00  0.00000000E+00  0.00000000E+00
  0.00000000E+00  0.00000000E+00  0.00000000E+00
  0.00000000E+00  0.00000000E+00  0.00000000E+00
  0.00000000E+00  0.00000000E+00  0.00000000E+00
  0.00000000E+00  0.00000000E+00  0.00000000E+00
  0.00000000E+00  0.00000000E+00  0.00000000E+00
  0.00000000E+00  0.00000000E+00  0.00000000E+00
  0.00000000E+00  0.00000000E+00  0.00000000E+00
  0.00000000E+00  0.00000000E+00  0.00000000E+00
  0.00000000E+00  0.00000000E+00  0.00000000E+00
  0.00000000E+00  0.00000000E+00  0.00000000E+00
  0.00000000E+00  0.00000000E+00  0.00000000E+00
  0.00000000E+00  0.00000000E+00  0.00000000E+00
  0.00000000E+00  0.00000000E+00  0.00000000E+00
  0.00000000E+00  0.00000000E+00  0.00000000E+00
  0.00000000E+00  0.00000000E+00  0.00000000E+00
  0.00000000E+00  0.00000000E+00  0.00000000E+00
  0.00000000E+00  0.00000000E+00  0.00000000E+00
  0.00000000E+00  0.00000000E+00  0.00000000E+00
  0.00000000E+00  0.00000000E+00  0.00000000E+00
  0.00000000E+00  0.00000000E+00  0.00000000E+00
  0.00000000E+00  0.00000000E+00  0.00000000E+00
  0.00000000E+00  0.00000000E+00  0.00000000E+00
  0.00000000E+00  0.00000000E+00  0.00000000E+00
  0.00000000E+00  0.00000000E+00  0.00000000E+00
  0.00000000E+00  0.00000000E+00  0.00000000E+00
  0.00000000E+00  0.00000000E+00  0.00000000E+00
  0.00000000E+00  0.00000000E+00  0.00000000E+00
  0.00000000E+00  0.00000000E+00  0.00000000E+00
  0.00000000E+00  0.00000000E+00  0.00000000E+00
  0.00000000E+00  0.00000000E+00  0.00000000E+00
  0.00000000E+00  0.00000000E+00  0.00000000E+00
  0.00000000E+00  0.00000000E+00  0.00000000E+00
  0.00000000E+00  0.00000000E+00  0.00000000E+00
  0.00000000E+00  0.00000000E+00  0.00000000E+00
  0.00000000E+00  0.00000000E+00  0.00000000E+00
  0.00000000E+00  0.00000000E+00  0.00000000E+00
  0.00000000E+00  0.00000000E+00  0.00000000E+00
  0.00000000E+00  0.00000000E+00  0.00000000E+00
  0.00000000E+00  0.00000000E+00  0.00000000E+00
  0.00000000E+00  0.00000000E+00  0.00000000E+00
  0.00000000E+00  0.00000000E+00  0.00000000E+00
  0.00000000E+00  0.00000000E+00  0.00000000E+00
  0.00000000E+00  0.00000000E+00  0.00000000E+00
  0.00000000E+00  0.00000000E+00  0.00000000E+00
  0.00000000E+00  0.00000000E+00  0.00000000E+00
  0.00000000E+00  0.00000000E+00  0.00000000E+00
  0.00000000E+00  0.00000000E+00  0.00000000E+00
  0.00000000E+00  0.00000000E+00  0.00000000E+00
  0.00000000E+00  0.00000000E+00  0.00000000E+00
  0.00000000E+00  0.00000000E+00  0.00000000E+00
  0.00000000E+00  0.00000000E+00  0.00000000E+00
  0.00000000E+00  0.00000000E+00  0.00000000E+00
  0.00000000E+00  0.00000000E+00  0.00000000E+00
  0.00000000E+00  0.00000000E+00  0.00000000E+00
  0.00000000E+00  0.00000000E+00  0.00000000E+00
  0.00000000E+00  0.00000000E+00  0.00000000E+00
  0.00000000E+00  0.00000000E+00  0.00000000E+00
  0.00000000E+00  0.00000000E+00  0.00000000E+00
  0.00000000E+00  0.00000000E+00  0.00000000E+00
  0.00000000E+00  0.00000000E+00  0.00000000E+00
  0.00000000E+00  0.00000000E+00  0.00000000E+00
  0.00000000E+00  0.00000000E+00  0.00000000E+00
  0.00000000E+00  0.00000000E+00  0.00000000E+00
  0.00000000E+00  0.00000000E+00  0.00000000E+00
  0.00000000E+00  0.00000000E+00  0.00000000E+00
  0.00000000E+00  0.00000000E+00  0.00000000E+00
  0.00000000E+00  0.00000000E+00  0.00000000E+00
  0.00000000E+00  0.00000000E+00  0.00000000E+00
  0.00000000E+00  0.00000000E+00  0.00000000E+00
  0.00000000E+00  0.00000000E+00  0.00000000E+00
  0.00000000E+00  0.00000000E+00  0.00000000E+00
  0.00000000E+00  0.00000000E+00  0.00000000E+00
  0.00000000E+00  0.00000000E+00  0.00000000E+00
  0.00000000E+00  0.00000000E+00  0.00000000E+00
  0.00000000E+00  0.00000000E+00  0.00000000E+00
  0.00000000E+00  0.00000000E+00  0.00000000E+00
  0.00000000E+00  0.00000000E+00  0.00000000E+00
  0.00000000E+00  0.00000000E+00  0.00000000E+00
  0.00000000E+00  0.00000000E+00  0.00000000E+00
  0.00000000E+00  0.00000000E+00  0.00000000E+00
  0.00000000E+00  0.00000000E+00  0.00000000E+00
  0.00000000E+00  0.00000000E+00  0.00000000E+00
  0.00000000E+00  0.00000000E+00  0.00000000E+00
  0.00000000E+00  0.00000000E+00  0.00000000E+00
  0.00000000E+00  0.00000000E+00  0.00000000E+00
  0.00000000E+00  0.00000000E+00  0.00000000E+00
  0.00000000E+00  0.00000000E+00  0.00000000E+00
  0.00000000E+00  0.00000000E+00  0.00000000E+00
  0.00000000E+00  0.00000000E+00  0.00000000E+00
  0.00000000E+00  0.00000000E+00  0.00000000E+00
  0.00000000E+00  0.00000000E+00  0.00000000E+00
  0.00000000E+00  0.00000000E+00  0.00000000E+00
  0.00000000E+00  0.00000000E+00  0.00000000E+00
  0.00000000E+00  0.00000000E+00  0.00000000E+00
  0.00000000E+00  0.00000000E+00  0.00000000E+00
  0.00000000E+00  0.00000000E+00  0.00000000E+00
  0.00000000E+00  0.00000000E+00  0.00000000E+00
  0.00000000E+00  0.00000000E+00  0.00000000E+00
  0.00000000E+00  0.00000000E+00  0.00000000E+00
  0.00000000E+00  0.00000000E+00  0.00000000E+00
  0.00000000E+00  0.00000000E+00  0.00000000E+00
  0.00000000E+00  0.00000000E+00  0.00000000E+00
  0.00000000E+00  0.00000000E+00  0.00000000E+00
  0.00000000E+00  0.00000000E+00  0.00000000E+00
  0.00000000E+00  0.00000000E+00  0.00000000E+00
  0.00000000E+00  0.00000000E+00  0.00000000E+00
  0.00000000E+00  0.00000000E+00  0.00000000E+00
  0.00000000E+00  0.00000000E+00  0.00000000E+00
  0.00000000E+00  0.00000000E+00  0.00000000E+00
  0.00000000E+00  0.00000000E+00  0.00000000E+00
  0.00000000E+00  0.00000000E+00  0.00000000E+00
