Primitive Cell                          
   1.00000000000000     
    22.3853360750653643    0.0027024324672353    0.0000000000000000
   -11.1903551546273494   19.3552196678579307    0.0000000000000000
     0.0000000000000000    0.0000000000000000   20.0000000000000000
   C    H    O    N 
    42    18    12    12
Direct
  0.3528365046870121  0.6173562175170773  0.4421195930077388
  0.2820842666610730  0.5946715373995346  0.4424002232137383
  0.2586584178914251  0.6420019353803497  0.4432440153872150
  0.3067802729659590  0.7128470109602958  0.4432583121398537
  0.4000951734657008  0.6881717491808672  0.4421422806939006
  0.3720833255320315  0.5621342558217748  0.4479551252123244
  0.1843723649464195  0.6228792434076524  0.4501118006683527
  0.6400838452522351  0.3804180071727004  0.5530774207838860
  0.7107974011578833  0.4029371885570328  0.5528189520299804
  0.7340859920131564  0.3554957683434878  0.5528167694505726
  0.6858313200352484  0.2846914417159070  0.5535279738313150
  0.5926794535400006  0.3096189431479104  0.5539288839253018
  0.6211849901158928  0.4358577663156638  0.5465964897918028
  0.8083606953455629  0.3744382087648219  0.5463202114611505
  0.5397965691602593  0.0717618244014773  0.5193082823458610
  0.5406069149355446  0.0162338948848841  0.5499978517109056
  0.4993019020484297  0.9459389072487738  0.5323848363568118
  0.5583032902913345  0.9508327172650013  0.6175230392164650
  0.5260832053071383  0.4556024192005097  0.5177078039375189
  0.4695479220769982  0.4544672254779272  0.5481639497713928
  0.4405592398039815  0.4956870438115928  0.5304962893820004
  0.3860931751532277  0.4361941398135798  0.6153420047804943
  0.9234350789545758  0.4695200748178223  0.5180418054471545
  0.9788196606969350  0.5255827581577464  0.5491747712904171
  0.0491154812756633  0.5541542204498171  0.5321681396427635
  0.0439286970412880  0.6082774321720308  0.6172241576087742
  0.3774966800932091  0.7363358036658880  0.4430308323267980
  0.4328284649542127  0.8106862661250815  0.4498356731337410
  0.6151374342684690  0.2613194016346654  0.5538428844662633
  0.5597526358244025  0.1868290795645606  0.5481852300016286
  0.4524249387456081  0.9256376099845482  0.4787559819862750
  0.4514416796569449  0.9811235914794594  0.4481953555851703
  0.4928141024926802  0.0514206932523464  0.4657414403194409
  0.4335893709917400  0.0464369609393032  0.3807189420833836
  0.4673941390715868  0.5428436568088344  0.4770411697968768
  0.5240335148064759  0.5441238384555618  0.4466969551906956
  0.5529378180133762  0.5027910237243418  0.4642632888944433
  0.6075252762348740  0.5625074264855172  0.3795506007366001
  0.0695585714400622  0.5275126106275110  0.4786865319445468
  0.0142077951733910  0.4713088015413760  0.4476860187308560
  0.9439104322133929  0.4427975433422517  0.4646403310063008
  0.9491345383038876  0.3884995305287902  0.3797350306324674
  0.2852056640836693  0.7470675129678241  0.4458143214073189
  0.4559055789815645  0.7098299106890877  0.4437542379097081
  0.2478658228835258  0.5387922105140674  0.4441736698836962
  0.7073023765558375  0.2503557861825101  0.5515970112393518
  0.5368774131998180  0.2880901121082147  0.5525262230199388
  0.7450971736343774  0.4587827612493598  0.5504080439063372
  0.5828019906667521  0.9413562181360717  0.6598599651331867
  0.6328769275092725  0.1556879616139000  0.5484992778709170
  0.3519068739476197  0.4113952188079537  0.6574921233086997
  0.5169364216438268  0.3626638145089629  0.5475185961358875
  0.0532327862256636  0.6422021944453178  0.6596033485161144
  0.8398311910163159  0.4788713278528149  0.5478074819545427
  0.4090026517862810  0.0558918397768764  0.3384325991018358
  0.3599463488929047  0.8420430125929386  0.4479717733857740
  0.6417603145856674  0.5874108928892099  0.3374549268047318
  0.4762645221019071  0.6356944967044598  0.4473996265382283
  0.9398553264542784  0.3544840335292818  0.3374428887977601
  0.1532603439128977  0.5185470092612974  0.4486157012572392
  0.4945080276917011  0.8284641138601003  0.4495873411414379
  0.3284421556983474  0.5002805636655836  0.4469378546825311
  0.1664466312166439  0.6667148049718179  0.4498385140124910
  0.4980403645774345  0.1688610171208111  0.5495243331117408
  0.6650950232450370  0.4976377241452070  0.5470837559875790
  0.8261584908178321  0.3305057790947856  0.5469304473215573
  0.5793895652617636  0.0194354985880025  0.6049772355352729
  0.4337822864229182  0.4153989902806572  0.6029772880562305
  0.9754008923470678  0.5611840316132302  0.6040738703401729
  0.4124672274528223  0.9778221208710605  0.3933250268106221
  0.5599381970998110  0.5834137794122896  0.3920472886257329
  0.0176494952181940  0.4355671677309090  0.3929166752960498
  0.5120301928739650  0.9061408961190978  0.5776215174384944
  0.5828117325900237  0.1404766579629140  0.5387290201104449
  0.3877731504358906  0.4825744606621498  0.5755082885569109
  0.5517728265704847  0.4127342311503241  0.5374060759959960
  0.0887260849621185  0.6063986683540179  0.5777713146959655
  0.8547509413709449  0.4439372921498048  0.5370907405203553
  0.4800183239381468  0.0911640553406841  0.4204916043211284
  0.4096986824951827  0.8570231959630519  0.4590635866612160
  0.6056958561488059  0.5159362046567821  0.4192079636354435
  0.4415444616974611  0.5855504536412539  0.4573294195814555
  0.9043337889554763  0.3905133995660677  0.4190858171390133
  0.1381918201904071  0.5533483097029119  0.4593864388177238
 
  0.00000000E+00  0.00000000E+00  0.00000000E+00
  0.00000000E+00  0.00000000E+00  0.00000000E+00
  0.00000000E+00  0.00000000E+00  0.00000000E+00
  0.00000000E+00  0.00000000E+00  0.00000000E+00
  0.00000000E+00  0.00000000E+00  0.00000000E+00
  0.00000000E+00  0.00000000E+00  0.00000000E+00
  0.00000000E+00  0.00000000E+00  0.00000000E+00
  0.00000000E+00  0.00000000E+00  0.00000000E+00
  0.00000000E+00  0.00000000E+00  0.00000000E+00
  0.00000000E+00  0.00000000E+00  0.00000000E+00
  0.00000000E+00  0.00000000E+00  0.00000000E+00
  0.00000000E+00  0.00000000E+00  0.00000000E+00
  0.00000000E+00  0.00000000E+00  0.00000000E+00
  0.00000000E+00  0.00000000E+00  0.00000000E+00
  0.00000000E+00  0.00000000E+00  0.00000000E+00
  0.00000000E+00  0.00000000E+00  0.00000000E+00
  0.00000000E+00  0.00000000E+00  0.00000000E+00
  0.00000000E+00  0.00000000E+00  0.00000000E+00
  0.00000000E+00  0.00000000E+00  0.00000000E+00
  0.00000000E+00  0.00000000E+00  0.00000000E+00
  0.00000000E+00  0.00000000E+00  0.00000000E+00
  0.00000000E+00  0.00000000E+00  0.00000000E+00
  0.00000000E+00  0.00000000E+00  0.00000000E+00
  0.00000000E+00  0.00000000E+00  0.00000000E+00
  0.00000000E+00  0.00000000E+00  0.00000000E+00
  0.00000000E+00  0.00000000E+00  0.00000000E+00
  0.00000000E+00  0.00000000E+00  0.00000000E+00
  0.00000000E+00  0.00000000E+00  0.00000000E+00
  0.00000000E+00  0.00000000E+00  0.00000000E+00
  0.00000000E+00  0.00000000E+00  0.00000000E+00
  0.00000000E+00  0.00000000E+00  0.00000000E+00
  0.00000000E+00  0.00000000E+00  0.00000000E+00
  0.00000000E+00  0.00000000E+00  0.00000000E+00
  0.00000000E+00  0.00000000E+00  0.00000000E+00
  0.00000000E+00  0.00000000E+00  0.00000000E+00
  0.00000000E+00  0.00000000E+00  0.00000000E+00
  0.00000000E+00  0.00000000E+00  0.00000000E+00
  0.00000000E+00  0.00000000E+00  0.00000000E+00
  0.00000000E+00  0.00000000E+00  0.00000000E+00
  0.00000000E+00  0.00000000E+00  0.00000000E+00
  0.00000000E+00  0.00000000E+00  0.00000000E+00
  0.00000000E+00  0.00000000E+00  0.00000000E+00
  0.00000000E+00  0.00000000E+00  0.00000000E+00
  0.00000000E+00  0.00000000E+00  0.00000000E+00
  0.00000000E+00  0.00000000E+00  0.00000000E+00
  0.00000000E+00  0.00000000E+00  0.00000000E+00
  0.00000000E+00  0.00000000E+00  0.00000000E+00
  0.00000000E+00  0.00000000E+00  0.00000000E+00
  0.00000000E+00  0.00000000E+00  0.00000000E+00
  0.00000000E+00  0.00000000E+00  0.00000000E+00
  0.00000000E+00  0.00000000E+00  0.00000000E+00
  0.00000000E+00  0.00000000E+00  0.00000000E+00
  0.00000000E+00  0.00000000E+00  0.00000000E+00
  0.00000000E+00  0.00000000E+00  0.00000000E+00
  0.00000000E+00  0.00000000E+00  0.00000000E+00
  0.00000000E+00  0.00000000E+00  0.00000000E+00
  0.00000000E+00  0.00000000E+00  0.00000000E+00
  0.00000000E+00  0.00000000E+00  0.00000000E+00
  0.00000000E+00  0.00000000E+00  0.00000000E+00
  0.00000000E+00  0.00000000E+00  0.00000000E+00
  0.00000000E+00  0.00000000E+00  0.00000000E+00
  0.00000000E+00  0.00000000E+00  0.00000000E+00
  0.00000000E+00  0.00000000E+00  0.00000000E+00
  0.00000000E+00  0.00000000E+00  0.00000000E+00
  0.00000000E+00  0.00000000E+00  0.00000000E+00
  0.00000000E+00  0.00000000E+00  0.00000000E+00
  0.00000000E+00  0.00000000E+00  0.00000000E+00
  0.00000000E+00  0.00000000E+00  0.00000000E+00
  0.00000000E+00  0.00000000E+00  0.00000000E+00
  0.00000000E+00  0.00000000E+00  0.00000000E+00
  0.00000000E+00  0.00000000E+00  0.00000000E+00
  0.00000000E+00  0.00000000E+00  0.00000000E+00
  0.00000000E+00  0.00000000E+00  0.00000000E+00
  0.00000000E+00  0.00000000E+00  0.00000000E+00
  0.00000000E+00  0.00000000E+00  0.00000000E+00
  0.00000000E+00  0.00000000E+00  0.00000000E+00
  0.00000000E+00  0.00000000E+00  0.00000000E+00
  0.00000000E+00  0.00000000E+00  0.00000000E+00
  0.00000000E+00  0.00000000E+00  0.00000000E+00
  0.00000000E+00  0.00000000E+00  0.00000000E+00
  0.00000000E+00  0.00000000E+00  0.00000000E+00
  0.00000000E+00  0.00000000E+00  0.00000000E+00
  0.00000000E+00  0.00000000E+00  0.00000000E+00
  0.00000000E+00  0.00000000E+00  0.00000000E+00
