Primitive Cell                          
   1.00000000000000     
    29.2120462076989931   -0.0066706507156626    0.0000000000000000
    14.6002461519387197   25.3017094371333364    0.0000000000000000
     0.0000000000000000    0.0000000000000000   20.0000000000000000
   N    H    C 
    15    33    54
Direct
  0.5103351629758706  0.9700781250613204  0.4514666447827054
  0.5243600607261669  0.9414567609781059  0.6308937494347617
  0.6904920540230748  0.6090347273640404  0.5005967056953011
  0.6090347273640404  0.6904920540230748  0.5005967056953011
  0.6905141537657045  0.6905141537657045  0.5004291908171297
  0.3027650099858334  0.3842400982487320  0.4998945801104711
  0.3842400982487320  0.3027650099858334  0.4998945801104711
  0.3027601551412360  0.3027601551412360  0.5006003924589706
  0.5242608689022532  0.5242608689022532  0.6313667141501398
  0.9414567609781059  0.5243600607261669  0.6308937494347617
  0.5098899011965443  0.5098899011965443  0.4519522557350513
  0.4834892829986188  0.4834892829986188  0.4503547494514208
  0.9700781250613204  0.5103351629758706  0.4514666447827054
  0.0228791083875208  0.4839119771044906  0.4498522212318079
  0.4839119771044906  0.0228791083875208  0.4498522212318079
  0.5142554498296050  0.9600037251951221  0.6756188144299031
  0.8785558622339593  0.4821234723832362  0.5051352223441583
  0.7798537382760600  0.5315974596830984  0.5015171938425311
  0.8784974205958420  0.6295748908358831  0.5050211763957719
  0.7798053148464419  0.6786571920829587  0.5013773143201661
  0.6786571920829587  0.7798053148464419  0.5013773143201661
  0.6295748908358831  0.8784974205958420  0.5050211763957719
  0.5315974596830984  0.7798537382760600  0.5015171938425311
  0.4821234723832362  0.8785558622339593  0.5051352223441583
  0.5315680404109742  0.6785502163562356  0.5014584041793668
  0.4820147964688459  0.6293739163260099  0.5053405841893550
  0.6293739163260099  0.4820147964688459  0.5053405841893550
  0.6785502163562356  0.5315680404109742  0.5014584041793668
  0.1147104780208750  0.5112414858106007  0.5030184539336275
  0.2133880087226530  0.4616690443173184  0.5001118677708831
  0.1145592040786596  0.3639433305687874  0.5035262237531626
  0.2132277675266394  0.3147453263874382  0.5006770919314434
  0.3147453263874382  0.2132277675266394  0.5006770919314434
  0.3639433305687874  0.1145592040786596  0.5035262237531626
  0.4616690443173184  0.2133880087226530  0.5001118677708831
  0.5112414858106007  0.1147104780208750  0.5030184539336275
  0.4617282699367991  0.3147725227784122  0.4999181114237246
  0.5112607373899039  0.3639312281165061  0.5033394294503211
  0.3639312281165061  0.5112607373899039  0.5033394294503211
  0.3147725227784122  0.4617282699367991  0.4999181114237246
  0.5150099319269543  0.5150099319269543  0.6761415584416000
  0.5442394416012633  0.5442394416012633  0.6304548990520189
  0.4708541119556742  0.4708541119556742  0.6170969435994706
  0.9600037251951221  0.5142554498296050  0.6756188144299031
  0.9015115150385498  0.5437671968447191  0.6300751316181419
  0.0481446556410745  0.4705596449754808  0.6165902000562369
  0.5437671968447191  0.9015115150385498  0.6300751316181419
  0.4705596449754808  0.0481446556410745  0.6165902000562369
  0.5102219118485110  0.9694671782921418  0.5726909287881625
  0.5232881093495010  0.9437276477781040  0.5094143383849499
  0.7152691463817717  0.6373948044249929  0.5005824373951029
  0.6373703039071259  0.6373703039071259  0.5006592314448781
  0.6373948044249929  0.7152691463817717  0.5005824373951029
  0.6081103058595261  0.6081103058595261  0.5018165876832228
  0.6355130125249957  0.5525922709014850  0.5026537435075653
  0.6079581038483255  0.5251352798807361  0.5049712794295047
  0.5524862229933802  0.5524862229933802  0.5061726239715298
  0.5251352798807361  0.6079581038483255  0.5049712794295047
  0.5525922709014850  0.6355130125249957  0.5026537435075653
  0.7737477334802421  0.6081694678283824  0.5017524612580928
  0.8018530137591711  0.5526554729616180  0.5026331685727286
  0.8568457261125459  0.5252467572954487  0.5048019948251010
  0.8849376461146221  0.5526522502157434  0.5058188581616960
  0.8568179199161037  0.6081193973124073  0.5047071625456212
  0.8018306870008658  0.6356209820041627  0.5025421505680541
  0.6081694678283824  0.7737477334802421  0.5017524612580928
  0.6356209820041627  0.8018306870008658  0.5025421505680541
  0.6081193973124073  0.8568179199161037  0.5047071625456212
  0.5526522502157434  0.8849376461146221  0.5058188581616960
  0.5252467572954487  0.8568457261125459  0.5048019948251010
  0.5526554729616180  0.8018530137591711  0.5026331685727286
  0.2779695088971366  0.3558865280471935  0.5002246991933177
  0.3559005011233651  0.3559005011233651  0.4998216241143254
  0.3558865280471935  0.2779695088971366  0.5002246991933177
  0.3851699831750963  0.3851699831750963  0.5003518915147751
  0.3578143339218656  0.4406867023355403  0.5009321337715207
  0.3853741033581031  0.4681463324978523  0.5030099857821995
  0.4407796356262281  0.4407796356262281  0.5045533078629205
  0.4681463324978523  0.3853741033581031  0.5030099857821995
  0.4406867023355403  0.3578143339218656  0.5009321337715207
  0.2194614064501792  0.3851351652975339  0.5007536499136265
  0.1913525778197211  0.4406496948030849  0.5010623902810849
  0.1363522001916877  0.4681300104710147  0.5027981327740960
  0.1082717741310830  0.4407862847203177  0.5042564194945953
  0.1362602397409063  0.3853752311122634  0.5031187991228450
  0.1912684425488322  0.3577924623765796  0.5013855019513471
  0.3851351652975339  0.2194614064501792  0.5007536499136265
  0.3577924623765796  0.1912684425488322  0.5013855019513471
  0.3853752311122634  0.1362602397409063  0.5031187991228450
  0.4407862847203177  0.1082717741310830  0.5042564194945953
  0.4681300104710147  0.1363522001916877  0.5027981327740960
  0.4406496948030849  0.1913525778197211  0.5010623902810849
  0.4701830825072548  0.4701830825072548  0.5089391608277580
  0.4825683567734700  0.4825683567734700  0.5712338614072934
  0.5102189348667068  0.5102189348667068  0.5731989124420025
  0.5230775153023117  0.5230775153023117  0.5098962143324854
  0.0494810825720720  0.4702644968349006  0.5084319100826278
  0.0247294346731124  0.4824497818106011  0.5707211724488346
  0.9694671782921418  0.5102219118485110  0.5726909287881625
  0.9437276477781040  0.5232881093495010  0.5094143383849499
  0.4702644968349006  0.0494810825720720  0.5084319100826278
  0.4824497818106011  0.0247294346731124  0.5707211724488346
 
  0.00000000E+00  0.00000000E+00  0.00000000E+00
  0.00000000E+00  0.00000000E+00  0.00000000E+00
  0.00000000E+00  0.00000000E+00  0.00000000E+00
  0.00000000E+00  0.00000000E+00  0.00000000E+00
  0.00000000E+00  0.00000000E+00  0.00000000E+00
  0.00000000E+00  0.00000000E+00  0.00000000E+00
  0.00000000E+00  0.00000000E+00  0.00000000E+00
  0.00000000E+00  0.00000000E+00  0.00000000E+00
  0.00000000E+00  0.00000000E+00  0.00000000E+00
  0.00000000E+00  0.00000000E+00  0.00000000E+00
  0.00000000E+00  0.00000000E+00  0.00000000E+00
  0.00000000E+00  0.00000000E+00  0.00000000E+00
  0.00000000E+00  0.00000000E+00  0.00000000E+00
  0.00000000E+00  0.00000000E+00  0.00000000E+00
  0.00000000E+00  0.00000000E+00  0.00000000E+00
  0.00000000E+00  0.00000000E+00  0.00000000E+00
  0.00000000E+00  0.00000000E+00  0.00000000E+00
  0.00000000E+00  0.00000000E+00  0.00000000E+00
  0.00000000E+00  0.00000000E+00  0.00000000E+00
  0.00000000E+00  0.00000000E+00  0.00000000E+00
  0.00000000E+00  0.00000000E+00  0.00000000E+00
  0.00000000E+00  0.00000000E+00  0.00000000E+00
  0.00000000E+00  0.00000000E+00  0.00000000E+00
  0.00000000E+00  0.00000000E+00  0.00000000E+00
  0.00000000E+00  0.00000000E+00  0.00000000E+00
  0.00000000E+00  0.00000000E+00  0.00000000E+00
  0.00000000E+00  0.00000000E+00  0.00000000E+00
  0.00000000E+00  0.00000000E+00  0.00000000E+00
  0.00000000E+00  0.00000000E+00  0.00000000E+00
  0.00000000E+00  0.00000000E+00  0.00000000E+00
  0.00000000E+00  0.00000000E+00  0.00000000E+00
  0.00000000E+00  0.00000000E+00  0.00000000E+00
  0.00000000E+00  0.00000000E+00  0.00000000E+00
  0.00000000E+00  0.00000000E+00  0.00000000E+00
  0.00000000E+00  0.00000000E+00  0.00000000E+00
  0.00000000E+00  0.00000000E+00  0.00000000E+00
  0.00000000E+00  0.00000000E+00  0.00000000E+00
  0.00000000E+00  0.00000000E+00  0.00000000E+00
  0.00000000E+00  0.00000000E+00  0.00000000E+00
  0.00000000E+00  0.00000000E+00  0.00000000E+00
  0.00000000E+00  0.00000000E+00  0.00000000E+00
  0.00000000E+00  0.00000000E+00  0.00000000E+00
  0.00000000E+00  0.00000000E+00  0.00000000E+00
  0.00000000E+00  0.00000000E+00  0.00000000E+00
  0.00000000E+00  0.00000000E+00  0.00000000E+00
  0.00000000E+00  0.00000000E+00  0.00000000E+00
  0.00000000E+00  0.00000000E+00  0.00000000E+00
  0.00000000E+00  0.00000000E+00  0.00000000E+00
  0.00000000E+00  0.00000000E+00  0.00000000E+00
  0.00000000E+00  0.00000000E+00  0.00000000E+00
  0.00000000E+00  0.00000000E+00  0.00000000E+00
  0.00000000E+00  0.00000000E+00  0.00000000E+00
  0.00000000E+00  0.00000000E+00  0.00000000E+00
  0.00000000E+00  0.00000000E+00  0.00000000E+00
  0.00000000E+00  0.00000000E+00  0.00000000E+00
  0.00000000E+00  0.00000000E+00  0.00000000E+00
  0.00000000E+00  0.00000000E+00  0.00000000E+00
  0.00000000E+00  0.00000000E+00  0.00000000E+00
  0.00000000E+00  0.00000000E+00  0.00000000E+00
  0.00000000E+00  0.00000000E+00  0.00000000E+00
  0.00000000E+00  0.00000000E+00  0.00000000E+00
  0.00000000E+00  0.00000000E+00  0.00000000E+00
  0.00000000E+00  0.00000000E+00  0.00000000E+00
  0.00000000E+00  0.00000000E+00  0.00000000E+00
  0.00000000E+00  0.00000000E+00  0.00000000E+00
  0.00000000E+00  0.00000000E+00  0.00000000E+00
  0.00000000E+00  0.00000000E+00  0.00000000E+00
  0.00000000E+00  0.00000000E+00  0.00000000E+00
  0.00000000E+00  0.00000000E+00  0.00000000E+00
  0.00000000E+00  0.00000000E+00  0.00000000E+00
  0.00000000E+00  0.00000000E+00  0.00000000E+00
  0.00000000E+00  0.00000000E+00  0.00000000E+00
  0.00000000E+00  0.00000000E+00  0.00000000E+00
  0.00000000E+00  0.00000000E+00  0.00000000E+00
  0.00000000E+00  0.00000000E+00  0.00000000E+00
  0.00000000E+00  0.00000000E+00  0.00000000E+00
  0.00000000E+00  0.00000000E+00  0.00000000E+00
  0.00000000E+00  0.00000000E+00  0.00000000E+00
  0.00000000E+00  0.00000000E+00  0.00000000E+00
  0.00000000E+00  0.00000000E+00  0.00000000E+00
  0.00000000E+00  0.00000000E+00  0.00000000E+00
  0.00000000E+00  0.00000000E+00  0.00000000E+00
  0.00000000E+00  0.00000000E+00  0.00000000E+00
  0.00000000E+00  0.00000000E+00  0.00000000E+00
  0.00000000E+00  0.00000000E+00  0.00000000E+00
  0.00000000E+00  0.00000000E+00  0.00000000E+00
  0.00000000E+00  0.00000000E+00  0.00000000E+00
  0.00000000E+00  0.00000000E+00  0.00000000E+00
  0.00000000E+00  0.00000000E+00  0.00000000E+00
  0.00000000E+00  0.00000000E+00  0.00000000E+00
  0.00000000E+00  0.00000000E+00  0.00000000E+00
  0.00000000E+00  0.00000000E+00  0.00000000E+00
  0.00000000E+00  0.00000000E+00  0.00000000E+00
  0.00000000E+00  0.00000000E+00  0.00000000E+00
  0.00000000E+00  0.00000000E+00  0.00000000E+00
  0.00000000E+00  0.00000000E+00  0.00000000E+00
  0.00000000E+00  0.00000000E+00  0.00000000E+00
  0.00000000E+00  0.00000000E+00  0.00000000E+00
  0.00000000E+00  0.00000000E+00  0.00000000E+00
  0.00000000E+00  0.00000000E+00  0.00000000E+00
  0.00000000E+00  0.00000000E+00  0.00000000E+00
  0.00000000E+00  0.00000000E+00  0.00000000E+00
