Primitive Cell                          
   1.00000000000000     
    23.1473284235377506   -0.0022876728326202    0.0000000000000000
   -11.5755954600266211   20.0483740595296531    0.0000000000000000
     0.0000000618663141   -0.0005954953655107   20.0000000000000000
   H    C    N 
    30    72    12
Direct
  0.2108432185686198  0.7220637402221541  0.6176312229977867
  0.2509167021893575  0.6234789404031176  0.5102810590836810
  0.0832213089744371  0.3921115961820192  0.5108332330135283
  0.0832836517360960  0.6870823615211776  0.5092769025547028
  0.2103256231609905  0.4835913265382175  0.4031748916754765
  0.4068313254179330  0.7798839741966717  0.5103076311558041
  0.4046474405063094  0.0706071543985374  0.5094802399043417
  0.3431192879986185  0.9474447862346622  0.5108037071939293
  0.4074261169958646  0.6240871737082117  0.5106266785085083
  0.4052495573464157  0.3311820861398971  0.5108463773369820
  0.3437008732539368  0.3927781665356491  0.5094505745681346
  0.5465534040123217  0.8207142373035197  0.6174039335257646
  0.3085360064141227  0.4849300154009271  0.6175490493948104
  0.4971413541227037  0.1983850106295577  0.6177435403352405
  0.3072585277035671  0.8207459755080535  0.4032144490141434
  0.5471262504003462  0.7232563530379252  0.4031423198691471
  0.4961470830537564  0.2952887939235893  0.4032980757003273
  0.6360401710216692  0.2383192448849343  0.5106892171741464
  0.6380977729784192  0.9475454294538110  0.5094891868616003
  0.6365622876795243  0.3947891689213421  0.5106473272936256
  0.6387689790143654  0.6877121072616390  0.5109545603502355
  0.6996846245861832  0.0707202690797786  0.5109359343045128
  0.7002961477226179  0.6260711222083373  0.5094958441086490
  0.8321028295649526  0.2958303278497496  0.6179649907321831
  0.7347772181887322  0.5323576826067082  0.6180824828303173
  0.7924112159297039  0.3942384990949321  0.5109209385077023
  0.9600444048695493  0.3305419466423984  0.5096050997839967
  0.9600935296568451  0.6254844401924160  0.5107666224712872
  0.7358236582083606  0.1971084557186060  0.4035408162641545
  0.8340608072505162  0.5358803827735343  0.4037005142204109
  0.2078729250589646  0.7063014432316379  0.5095859653272541
  0.2351634682440178  0.7415605083927517  0.5694468216813959
  0.2891862184520733  0.4900631079317037  0.5694173914215099
  0.2080479790946015  0.4978776095488300  0.5110003250710378
  0.0572635549762310  0.5266164551472272  0.5099788082298815
  0.0927033371089294  0.4904449801252113  0.5102597479657334
  0.1630089109678750  0.5266188195690376  0.5105940103747955
  0.1964421217034698  0.5962602901083116  0.5101847469466776
  0.1630125239441540  0.6324633344120798  0.5096600018723763
  0.0927060934634767  0.5982307560591309  0.5097642924869703
  0.0557158241659010  0.4190309043416605  0.5103472205205932
  0.0557402378828655  0.6326597743590199  0.5097331675092533
  0.2882886637110573  0.7959331202091988  0.4512867316444442
  0.2350886102539249  0.4893153550108451  0.4512602594075048
  0.5036153980756524  0.9735325199017524  0.5100836515536074
  0.4320028968298502  0.9380647536418607  0.5103047203134565
  0.3978433373946615  0.8677685472017558  0.5106062810816852
  0.4340676724057460  0.8343506610642635  0.5102105648779158
  0.5037157409814554  0.8678300721787551  0.5096949520436240
  0.5398000810570380  0.9381187221278893  0.5098871262030897
  0.3975500034019035  0.9750096391066876  0.5103475613102759
  0.5391947674384596  0.0447175211392832  0.5101094129152131
  0.5030038831847250  0.0801433727639917  0.5099656987799293
  0.5391265242532981  0.1504526066462688  0.5099306965202430
  0.4315908978213230  0.0431289043537220  0.5099029166355962
  0.5042182315822714  0.5272720355768072  0.5101684069651000
  0.5404191183747216  0.5988964861350539  0.5104418645173965
  0.5043377313300041  0.6331230329275144  0.5108007957358041
  0.4346766244213995  0.5968783634778703  0.5104475327741653
  0.3984321134132287  0.5272345359064943  0.5098491815370778
  0.4325956079606144  0.4910989967525339  0.5099563840903514
  0.3981395407090957  0.4196913838518057  0.5098883513720480
  0.5397873314287338  0.4916470342840853  0.5101371131948298
  0.5396892948407768  0.3858291943061971  0.5107216537948034
  0.5035920541570604  0.4200341171972966  0.5103554961487262
  0.4321776377809030  0.3856128248206829  0.5103661633769931
  0.3240282459973400  0.8228137411198375  0.5109952002923777
  0.5327766053189649  0.8230698355925625  0.5094802673307655
  0.5412900257902749  0.7961225670843746  0.5693063423245448
  0.5331943439898836  0.7069583056767854  0.5110288814002431
  0.3246044273313800  0.4983278077320890  0.5096227470045704
  0.5103260813218213  0.1954730646426768  0.5097863904145044
  0.5023506817451917  0.2228519364122477  0.5695828378327121
  0.5106996588186803  0.3120010254648093  0.5110994389531243
  0.5416050801885959  0.7424365465444822  0.4512268670096233
  0.5017864345518532  0.2762317949632660  0.4514050805230596
  0.6112058926689912  0.9750809918481309  0.5099035497879996
  0.6087802489551990  0.1838585216715529  0.5104919296799650
  0.6449899191482515  0.1504326048588922  0.5107890876432677
  0.6108118327240888  0.0801444632984527  0.5103675989197995
  0.6452560827282596  0.0431923705854587  0.5104093728090504
  0.6118295354547953  0.6332866642202575  0.5104523993415455
  0.6114058191231564  0.5277998940793083  0.5099672903607271
  0.6455849988099516  0.4916786285409103  0.5099120445994103
  0.6093466806367260  0.4220342109623658  0.5104511320073541
  0.6458612290017811  0.5992012610660353  0.5099464331891710
  0.8353028592403433  0.3114923495095425  0.5099104879749063
  0.8077837123873763  0.2763877743088088  0.5697781165419684
  0.7188157651023914  0.1953222155781091  0.5112697668554773
  0.7194079942521228  0.5205228926104368  0.5099398575901759
  0.7543543055083717  0.5277561376603330  0.5698621508869692
  0.8355215246591996  0.5201067416323397  0.5113342728663355
  0.9860685313541211  0.4910158446235471  0.5100208807344799
  0.9506176249491460  0.4194118121486810  0.5099399138668090
  0.8803097322195086  0.3852695002934681  0.5099706843640845
  0.8468822370127782  0.4214786425916159  0.5106044155953668
  0.8803433262077363  0.4911127297351072  0.5107872629497194
  0.9506463679409194  0.5271999228586779  0.5102590767001445
  0.9875843078216562  0.3849708687094662  0.5099292041150818
  0.9876236285115709  0.5985968177135348  0.5102496285772489
  0.7547355530892617  0.2219789992927232  0.4516069098377002
  0.8090762047440450  0.5297500601004614  0.4517167635865391
  0.2943017490023152  0.7979131400058534  0.5700657570900916
  0.2329057031321042  0.4929674340360535  0.5700637826039525
  0.2321433688867032  0.7366304131864680  0.4506182343379521
  0.2944538288923866  0.4926457074850603  0.4506135902443660
  0.5385419401640377  0.7370320301810054  0.5700186318519869
  0.5055524560747173  0.2821738817235513  0.5701739012452336
  0.5384059357626043  0.7985629473755864  0.4504849577214500
  0.5046182435039341  0.2199254025447459  0.4507861829892477
  0.7484601350855868  0.2203167651633606  0.5703527073254406
  0.8104416724006711  0.5245309490416048  0.5704587965646439
  0.8110100541821197  0.2811868265967163  0.4509499099208512
  0.7499528154941402  0.5269944034234371  0.4510079573834389
 
  0.00000000E+00  0.00000000E+00  0.00000000E+00
  0.00000000E+00  0.00000000E+00  0.00000000E+00
  0.00000000E+00  0.00000000E+00  0.00000000E+00
  0.00000000E+00  0.00000000E+00  0.00000000E+00
  0.00000000E+00  0.00000000E+00  0.00000000E+00
  0.00000000E+00  0.00000000E+00  0.00000000E+00
  0.00000000E+00  0.00000000E+00  0.00000000E+00
  0.00000000E+00  0.00000000E+00  0.00000000E+00
  0.00000000E+00  0.00000000E+00  0.00000000E+00
  0.00000000E+00  0.00000000E+00  0.00000000E+00
  0.00000000E+00  0.00000000E+00  0.00000000E+00
  0.00000000E+00  0.00000000E+00  0.00000000E+00
  0.00000000E+00  0.00000000E+00  0.00000000E+00
  0.00000000E+00  0.00000000E+00  0.00000000E+00
  0.00000000E+00  0.00000000E+00  0.00000000E+00
  0.00000000E+00  0.00000000E+00  0.00000000E+00
  0.00000000E+00  0.00000000E+00  0.00000000E+00
  0.00000000E+00  0.00000000E+00  0.00000000E+00
  0.00000000E+00  0.00000000E+00  0.00000000E+00
  0.00000000E+00  0.00000000E+00  0.00000000E+00
  0.00000000E+00  0.00000000E+00  0.00000000E+00
  0.00000000E+00  0.00000000E+00  0.00000000E+00
  0.00000000E+00  0.00000000E+00  0.00000000E+00
  0.00000000E+00  0.00000000E+00  0.00000000E+00
  0.00000000E+00  0.00000000E+00  0.00000000E+00
  0.00000000E+00  0.00000000E+00  0.00000000E+00
  0.00000000E+00  0.00000000E+00  0.00000000E+00
  0.00000000E+00  0.00000000E+00  0.00000000E+00
  0.00000000E+00  0.00000000E+00  0.00000000E+00
  0.00000000E+00  0.00000000E+00  0.00000000E+00
  0.00000000E+00  0.00000000E+00  0.00000000E+00
  0.00000000E+00  0.00000000E+00  0.00000000E+00
  0.00000000E+00  0.00000000E+00  0.00000000E+00
  0.00000000E+00  0.00000000E+00  0.00000000E+00
  0.00000000E+00  0.00000000E+00  0.00000000E+00
  0.00000000E+00  0.00000000E+00  0.00000000E+00
  0.00000000E+00  0.00000000E+00  0.00000000E+00
  0.00000000E+00  0.00000000E+00  0.00000000E+00
  0.00000000E+00  0.00000000E+00  0.00000000E+00
  0.00000000E+00  0.00000000E+00  0.00000000E+00
  0.00000000E+00  0.00000000E+00  0.00000000E+00
  0.00000000E+00  0.00000000E+00  0.00000000E+00
  0.00000000E+00  0.00000000E+00  0.00000000E+00
  0.00000000E+00  0.00000000E+00  0.00000000E+00
  0.00000000E+00  0.00000000E+00  0.00000000E+00
  0.00000000E+00  0.00000000E+00  0.00000000E+00
  0.00000000E+00  0.00000000E+00  0.00000000E+00
  0.00000000E+00  0.00000000E+00  0.00000000E+00
  0.00000000E+00  0.00000000E+00  0.00000000E+00
  0.00000000E+00  0.00000000E+00  0.00000000E+00
  0.00000000E+00  0.00000000E+00  0.00000000E+00
  0.00000000E+00  0.00000000E+00  0.00000000E+00
  0.00000000E+00  0.00000000E+00  0.00000000E+00
  0.00000000E+00  0.00000000E+00  0.00000000E+00
  0.00000000E+00  0.00000000E+00  0.00000000E+00
  0.00000000E+00  0.00000000E+00  0.00000000E+00
  0.00000000E+00  0.00000000E+00  0.00000000E+00
  0.00000000E+00  0.00000000E+00  0.00000000E+00
  0.00000000E+00  0.00000000E+00  0.00000000E+00
  0.00000000E+00  0.00000000E+00  0.00000000E+00
  0.00000000E+00  0.00000000E+00  0.00000000E+00
  0.00000000E+00  0.00000000E+00  0.00000000E+00
  0.00000000E+00  0.00000000E+00  0.00000000E+00
  0.00000000E+00  0.00000000E+00  0.00000000E+00
  0.00000000E+00  0.00000000E+00  0.00000000E+00
  0.00000000E+00  0.00000000E+00  0.00000000E+00
  0.00000000E+00  0.00000000E+00  0.00000000E+00
  0.00000000E+00  0.00000000E+00  0.00000000E+00
  0.00000000E+00  0.00000000E+00  0.00000000E+00
  0.00000000E+00  0.00000000E+00  0.00000000E+00
  0.00000000E+00  0.00000000E+00  0.00000000E+00
  0.00000000E+00  0.00000000E+00  0.00000000E+00
  0.00000000E+00  0.00000000E+00  0.00000000E+00
  0.00000000E+00  0.00000000E+00  0.00000000E+00
  0.00000000E+00  0.00000000E+00  0.00000000E+00
  0.00000000E+00  0.00000000E+00  0.00000000E+00
  0.00000000E+00  0.00000000E+00  0.00000000E+00
  0.00000000E+00  0.00000000E+00  0.00000000E+00
  0.00000000E+00  0.00000000E+00  0.00000000E+00
  0.00000000E+00  0.00000000E+00  0.00000000E+00
  0.00000000E+00  0.00000000E+00  0.00000000E+00
  0.00000000E+00  0.00000000E+00  0.00000000E+00
  0.00000000E+00  0.00000000E+00  0.00000000E+00
  0.00000000E+00  0.00000000E+00  0.00000000E+00
  0.00000000E+00  0.00000000E+00  0.00000000E+00
  0.00000000E+00  0.00000000E+00  0.00000000E+00
  0.00000000E+00  0.00000000E+00  0.00000000E+00
  0.00000000E+00  0.00000000E+00  0.00000000E+00
  0.00000000E+00  0.00000000E+00  0.00000000E+00
  0.00000000E+00  0.00000000E+00  0.00000000E+00
  0.00000000E+00  0.00000000E+00  0.00000000E+00
  0.00000000E+00  0.00000000E+00  0.00000000E+00
  0.00000000E+00  0.00000000E+00  0.00000000E+00
  0.00000000E+00  0.00000000E+00  0.00000000E+00
  0.00000000E+00  0.00000000E+00  0.00000000E+00
  0.00000000E+00  0.00000000E+00  0.00000000E+00
  0.00000000E+00  0.00000000E+00  0.00000000E+00
  0.00000000E+00  0.00000000E+00  0.00000000E+00
  0.00000000E+00  0.00000000E+00  0.00000000E+00
  0.00000000E+00  0.00000000E+00  0.00000000E+00
  0.00000000E+00  0.00000000E+00  0.00000000E+00
  0.00000000E+00  0.00000000E+00  0.00000000E+00
  0.00000000E+00  0.00000000E+00  0.00000000E+00
  0.00000000E+00  0.00000000E+00  0.00000000E+00
  0.00000000E+00  0.00000000E+00  0.00000000E+00
  0.00000000E+00  0.00000000E+00  0.00000000E+00
  0.00000000E+00  0.00000000E+00  0.00000000E+00
  0.00000000E+00  0.00000000E+00  0.00000000E+00
  0.00000000E+00  0.00000000E+00  0.00000000E+00
  0.00000000E+00  0.00000000E+00  0.00000000E+00
  0.00000000E+00  0.00000000E+00  0.00000000E+00
  0.00000000E+00  0.00000000E+00  0.00000000E+00
  0.00000000E+00  0.00000000E+00  0.00000000E+00
  0.00000000E+00  0.00000000E+00  0.00000000E+00
