Primitive Cell                          
   1.00000000000000     
    29.6119392724025694    0.1351445884414138    0.0000000000000000
   -14.6894952255457607   25.6544146954970635    0.0000000000000000
     0.0000000000000000    0.0000000000000000   20.0000000000000000
   N    O    H    C 
     6     3    42    63
Direct
  0.5116531211281412  0.0338615724783793  0.5719981786727857
  0.5107425747623324  0.4772005589410355  0.5637728076323185
  0.9777554592447899  0.4840607027495025  0.5572823569537562
  0.5379745403740870  0.0324105937171169  0.4596565728281519
  0.5349978972635512  0.5028472703736355  0.4503915155976941
  0.9793758747457062  0.5000034338411794  0.4399802452467867
  0.0537085687347698  0.5166602275400578  0.6182355518053555
  0.4615385792313305  0.9579897431963147  0.6303210419488039
  0.4613409188241420  0.5042451851515892  0.6226268928161929
  0.0486846564204839  0.5026760565648374  0.7176816329062063
  0.0518939030655829  0.5429049122332046  0.3962818988255634
  0.9947327222297133  0.5078578322815659  0.6843773400589299
  0.9986345403679664  0.4502762514920704  0.6696895729304657
  0.1255229162538996  0.6128082166396283  0.5838051111595775
  0.2214780565723729  0.6607239811323424  0.5806881329454967
  0.1231508823491581  0.5172948841407106  0.4196966587132209
  0.2192530991210973  0.5648052660722414  0.4172249709398130
  0.3384279541887736  0.5511615936939833  0.5614621261644714
  0.3865532883157670  0.5031854581387734  0.5671618316528964
  0.4595095105250948  0.6684153302864573  0.4394564822495255
  0.5085198204485692  0.6213898967254110  0.4470169960179717
  0.4606246360622634  0.7923271271299868  0.4457889568842646
  0.5100423548671813  0.8875305800144773  0.4546623597489798
  0.3883638234412459  0.8850708279053165  0.5756962267512620
  0.3400421089600627  0.7897562557467381  0.5691307010748901
  0.2915866497944819  0.7202900783127433  0.5017794747258932
  0.2905427074453470  0.5744987923385310  0.4934602839436479
  0.4357350943417586  0.7177767557696555  0.5060437232993991
  0.8915529356164669  0.4058975087310372  0.5854087360519173
  0.7949841799264803  0.3547604201260057  0.5835111527134274
  0.8902323647412302  0.4864601465263689  0.4072751045687397
  0.7934175333952993  0.4379415981977317  0.4075526837607271
  0.6571549164265136  0.4392267031021859  0.4164539438517281
  0.6076127567708411  0.4871619206108804  0.4173670445992173
  0.5734784096185663  0.3538635784496904  0.5911730630505474
  0.5260258901186319  0.4037440089908628  0.5934787999880271
  0.5726849205401621  0.2193628333717612  0.5967454292947991
  0.5257321185817716  0.1225912081860088  0.5998475970966481
  0.6122451462002303  0.1195664348755514  0.4291497521411216
  0.6614751216605512  0.2164304350339492  0.4278454457604397
  0.7245423530743906  0.2885714459930284  0.5038278466332500
  0.7227014001532979  0.4330487524366902  0.4914442068235161
  0.5794343626774960  0.2888627195088631  0.5147802810667699
  0.4505568849658985  0.0155798813913819  0.6768732016549279
  0.4465708724758031  0.9633363405283077  0.7277674357891684
  0.5086274530879535  0.0151421544523842  0.6999532721117774
  0.5097034839930501  0.4950501963811220  0.6916519684296460
  0.4479991677594128  0.4857871182641205  0.7206799127662720
  0.4514276125569978  0.4367295621424461  0.6707236330610158
  0.5095367545258114  0.9602531334758453  0.4153544162556599
  0.5061594178374023  0.5466659193543393  0.4063319449617282
  0.0291602452628226  0.5108812555601645  0.5592466449627338
  0.0601183372359912  0.5335354794384628  0.5015727541716402
  0.0214360693079101  0.4926433941256789  0.6759801950901547
  0.0313736909594766  0.5261090906481769  0.4431755345720845
  0.2848448733056799  0.6443554810296916  0.4987847665690524
  0.3127750878365703  0.6987956827954847  0.5022122319844087
  0.3672682818637938  0.7259758221898736  0.5031752457595644
  0.3935459110226489  0.6973567417266153  0.5015157461416209
  0.3666289444109196  0.6428470491958080  0.4982786206977465
  0.3121688384876151  0.6168638761575949  0.4962150458065437
  0.3963762732277658  0.7834123541911922  0.5068067193106813
  0.3769746783619965  0.8110479984111691  0.5428121502571344
  0.4044510473270506  0.8650025303288871  0.5470794058388222
  0.4528194121418423  0.8939849607113999  0.5151934983373891
  0.4723069215597278  0.8663658490314248  0.4791598022570014
  0.4446769815086711  0.8123858650009268  0.4749377669631016
  0.2273843358354242  0.6163283037647957  0.4986881873451736
  0.1999303502201712  0.6295417478127092  0.5448261429041565
  0.1459551495704616  0.6024941883923276  0.5468208621671380
  0.1173474197869027  0.5618494521275181  0.5015814282919493
  0.1447110822113800  0.5490203165272334  0.4548702956079964
  0.1987920637936114  0.5754833263788939  0.4538325782965060
  0.3951224930424999  0.6134849715552448  0.4999183796238427
  0.3753656383748663  0.5663154607245389  0.5351447924868182
  0.4027060300463958  0.5393288508865268  0.5389135101110512
  0.4511027394881140  0.5582524390560479  0.5071105480518128
  0.4707743763181327  0.6053105136833352  0.4714940163845753
  0.4433748103234549  0.6322787320705743  0.4679483405852523
  0.7300369840695140  0.3640241694268980  0.4971239059260242
  0.7030019820115498  0.3097300169042327  0.5034417676349676
  0.6487657251711383  0.2821926644608226  0.5094895738554683
  0.6216934378852486  0.3099887877961365  0.5109046359012197
  0.6477574204958927  0.3642114037031234  0.5031337073412203
  0.7018922119726980  0.3907186949294328  0.4953098841796475
  0.6205550320757851  0.2247152709166684  0.5122124898689648
  0.6317955606496071  0.1958754065629478  0.4657985515625001
  0.6044619956775250  0.1418208679577191  0.4663021139983812
  0.5660051347814985  0.1148759547758260  0.5147037679831286
  0.5552465336656027  0.1434870494305969  0.5619365289919074
  0.5815953960940945  0.1975633682021751  0.5600334527213562
  0.7874800048496127  0.3929263737571773  0.4955418719937086
  0.8158484837978577  0.3837055824423388  0.5448245817426525
  0.8697769433265350  0.4121876441155408  0.5460523367570929
  0.8970562563141584  0.4495151350304667  0.4965244102446036
  0.8689595740240676  0.4579776656889152  0.4461780764871790
  0.8149263484481324  0.4306945790625107  0.4464563172806351
  0.6187729434442844  0.3930937778069818  0.5037242640910833
  0.6284227272439793  0.4314182824130341  0.4554399766865700
  0.6009219489007975  0.4583248286511861  0.4557169944418362
  0.5638367298386555  0.4487338979357958  0.5056062172850844
  0.5544717303860622  0.4109225872038067  0.5544408867301982
  0.5810336207127733  0.3830849145236925  0.5529047044053357
  0.4854164311619087  0.9823336745112812  0.5730466871476025
  0.4820616921149536  0.9512198089383759  0.5169885453958258
  0.5371800942400213  0.0574495192464042  0.5153350564130221
  0.4674669479137563  0.9905380264585091  0.6871549605557377
  0.4844408019271711  0.5027505323234536  0.5649835112202197
  0.4802400794547808  0.5297969272392677  0.5086477872561375
  0.5351535637584632  0.4778417701268367  0.5064350132468789
  0.4683258457238395  0.4786232332251501  0.6798701444240081
  0.9544079736758562  0.4794686437051965  0.4976572278631792
  0.5102467437994704  0.9804376348209018  0.4615515565439949
  0.5074857017768863  0.5276491674462704  0.4526500189812523
 
  0.00000000E+00  0.00000000E+00  0.00000000E+00
  0.00000000E+00  0.00000000E+00  0.00000000E+00
  0.00000000E+00  0.00000000E+00  0.00000000E+00
  0.00000000E+00  0.00000000E+00  0.00000000E+00
  0.00000000E+00  0.00000000E+00  0.00000000E+00
  0.00000000E+00  0.00000000E+00  0.00000000E+00
  0.00000000E+00  0.00000000E+00  0.00000000E+00
  0.00000000E+00  0.00000000E+00  0.00000000E+00
  0.00000000E+00  0.00000000E+00  0.00000000E+00
  0.00000000E+00  0.00000000E+00  0.00000000E+00
  0.00000000E+00  0.00000000E+00  0.00000000E+00
  0.00000000E+00  0.00000000E+00  0.00000000E+00
  0.00000000E+00  0.00000000E+00  0.00000000E+00
  0.00000000E+00  0.00000000E+00  0.00000000E+00
  0.00000000E+00  0.00000000E+00  0.00000000E+00
  0.00000000E+00  0.00000000E+00  0.00000000E+00
  0.00000000E+00  0.00000000E+00  0.00000000E+00
  0.00000000E+00  0.00000000E+00  0.00000000E+00
  0.00000000E+00  0.00000000E+00  0.00000000E+00
  0.00000000E+00  0.00000000E+00  0.00000000E+00
  0.00000000E+00  0.00000000E+00  0.00000000E+00
  0.00000000E+00  0.00000000E+00  0.00000000E+00
  0.00000000E+00  0.00000000E+00  0.00000000E+00
  0.00000000E+00  0.00000000E+00  0.00000000E+00
  0.00000000E+00  0.00000000E+00  0.00000000E+00
  0.00000000E+00  0.00000000E+00  0.00000000E+00
  0.00000000E+00  0.00000000E+00  0.00000000E+00
  0.00000000E+00  0.00000000E+00  0.00000000E+00
  0.00000000E+00  0.00000000E+00  0.00000000E+00
  0.00000000E+00  0.00000000E+00  0.00000000E+00
  0.00000000E+00  0.00000000E+00  0.00000000E+00
  0.00000000E+00  0.00000000E+00  0.00000000E+00
  0.00000000E+00  0.00000000E+00  0.00000000E+00
  0.00000000E+00  0.00000000E+00  0.00000000E+00
  0.00000000E+00  0.00000000E+00  0.00000000E+00
  0.00000000E+00  0.00000000E+00  0.00000000E+00
  0.00000000E+00  0.00000000E+00  0.00000000E+00
  0.00000000E+00  0.00000000E+00  0.00000000E+00
  0.00000000E+00  0.00000000E+00  0.00000000E+00
  0.00000000E+00  0.00000000E+00  0.00000000E+00
  0.00000000E+00  0.00000000E+00  0.00000000E+00
  0.00000000E+00  0.00000000E+00  0.00000000E+00
  0.00000000E+00  0.00000000E+00  0.00000000E+00
  0.00000000E+00  0.00000000E+00  0.00000000E+00
  0.00000000E+00  0.00000000E+00  0.00000000E+00
  0.00000000E+00  0.00000000E+00  0.00000000E+00
  0.00000000E+00  0.00000000E+00  0.00000000E+00
  0.00000000E+00  0.00000000E+00  0.00000000E+00
  0.00000000E+00  0.00000000E+00  0.00000000E+00
  0.00000000E+00  0.00000000E+00  0.00000000E+00
  0.00000000E+00  0.00000000E+00  0.00000000E+00
  0.00000000E+00  0.00000000E+00  0.00000000E+00
  0.00000000E+00  0.00000000E+00  0.00000000E+00
  0.00000000E+00  0.00000000E+00  0.00000000E+00
  0.00000000E+00  0.00000000E+00  0.00000000E+00
  0.00000000E+00  0.00000000E+00  0.00000000E+00
  0.00000000E+00  0.00000000E+00  0.00000000E+00
  0.00000000E+00  0.00000000E+00  0.00000000E+00
  0.00000000E+00  0.00000000E+00  0.00000000E+00
  0.00000000E+00  0.00000000E+00  0.00000000E+00
  0.00000000E+00  0.00000000E+00  0.00000000E+00
  0.00000000E+00  0.00000000E+00  0.00000000E+00
  0.00000000E+00  0.00000000E+00  0.00000000E+00
  0.00000000E+00  0.00000000E+00  0.00000000E+00
  0.00000000E+00  0.00000000E+00  0.00000000E+00
  0.00000000E+00  0.00000000E+00  0.00000000E+00
  0.00000000E+00  0.00000000E+00  0.00000000E+00
  0.00000000E+00  0.00000000E+00  0.00000000E+00
  0.00000000E+00  0.00000000E+00  0.00000000E+00
  0.00000000E+00  0.00000000E+00  0.00000000E+00
  0.00000000E+00  0.00000000E+00  0.00000000E+00
  0.00000000E+00  0.00000000E+00  0.00000000E+00
  0.00000000E+00  0.00000000E+00  0.00000000E+00
  0.00000000E+00  0.00000000E+00  0.00000000E+00
  0.00000000E+00  0.00000000E+00  0.00000000E+00
  0.00000000E+00  0.00000000E+00  0.00000000E+00
  0.00000000E+00  0.00000000E+00  0.00000000E+00
  0.00000000E+00  0.00000000E+00  0.00000000E+00
  0.00000000E+00  0.00000000E+00  0.00000000E+00
  0.00000000E+00  0.00000000E+00  0.00000000E+00
  0.00000000E+00  0.00000000E+00  0.00000000E+00
  0.00000000E+00  0.00000000E+00  0.00000000E+00
  0.00000000E+00  0.00000000E+00  0.00000000E+00
  0.00000000E+00  0.00000000E+00  0.00000000E+00
  0.00000000E+00  0.00000000E+00  0.00000000E+00
  0.00000000E+00  0.00000000E+00  0.00000000E+00
  0.00000000E+00  0.00000000E+00  0.00000000E+00
  0.00000000E+00  0.00000000E+00  0.00000000E+00
  0.00000000E+00  0.00000000E+00  0.00000000E+00
  0.00000000E+00  0.00000000E+00  0.00000000E+00
  0.00000000E+00  0.00000000E+00  0.00000000E+00
  0.00000000E+00  0.00000000E+00  0.00000000E+00
  0.00000000E+00  0.00000000E+00  0.00000000E+00
  0.00000000E+00  0.00000000E+00  0.00000000E+00
  0.00000000E+00  0.00000000E+00  0.00000000E+00
  0.00000000E+00  0.00000000E+00  0.00000000E+00
  0.00000000E+00  0.00000000E+00  0.00000000E+00
  0.00000000E+00  0.00000000E+00  0.00000000E+00
  0.00000000E+00  0.00000000E+00  0.00000000E+00
  0.00000000E+00  0.00000000E+00  0.00000000E+00
  0.00000000E+00  0.00000000E+00  0.00000000E+00
  0.00000000E+00  0.00000000E+00  0.00000000E+00
  0.00000000E+00  0.00000000E+00  0.00000000E+00
  0.00000000E+00  0.00000000E+00  0.00000000E+00
  0.00000000E+00  0.00000000E+00  0.00000000E+00
  0.00000000E+00  0.00000000E+00  0.00000000E+00
  0.00000000E+00  0.00000000E+00  0.00000000E+00
  0.00000000E+00  0.00000000E+00  0.00000000E+00
  0.00000000E+00  0.00000000E+00  0.00000000E+00
  0.00000000E+00  0.00000000E+00  0.00000000E+00
  0.00000000E+00  0.00000000E+00  0.00000000E+00
  0.00000000E+00  0.00000000E+00  0.00000000E+00
  0.00000000E+00  0.00000000E+00  0.00000000E+00
  0.00000000E+00  0.00000000E+00  0.00000000E+00
