Primitive Cell                          
   1.00000000000000     
    24.4046513768889319   -0.0973126609402427    0.0000000000000000
   -12.2901973497347132   21.4159414004614241    0.0000000000000000
     0.0000000000000000    0.0000000000000000   20.0000000000000000
   H    N    C 
    42     8    54
Direct
  0.1296813861325674  0.5928074421714555  0.3959232133048403
  0.2461302641537131  0.6489644062040725  0.3951618220093707
  0.2454963637417507  0.5264958208094441  0.5488739482624894
  0.1277665407453981  0.4696046747030636  0.5493993957468604
  0.2882765850622064  0.6990871947247541  0.5366220526474663
  0.3476502689694883  0.8151818257815364  0.5366195359877111
  0.2854628324499302  0.5171924620155082  0.4079962802024184
  0.3413473658508934  0.4575538990773538  0.4079967118001164
  0.4838383685743182  0.5940639457911203  0.5385733212231756
  0.4279922896006596  0.6548260149420599  0.5382525739589141
  0.4295897197116076  0.6991363019960772  0.4072578128762387
  0.4878617542054542  0.8140597474701465  0.4070105625554490
  0.8397588657399453  0.3179160895641004  0.5646558390142005
  0.7234009628138693  0.2622996156110986  0.5640118929352624
  0.7263943219733520  0.3860138943423834  0.4104066890247822
  0.8440666312098344  0.4424295199474244  0.4113758635466951
  0.6819758598545889  0.2130726903418036  0.4223072862430541
  0.6220799504529850  0.0969987538030139  0.4221115430443305
  0.6857587132619329  0.3952104529378460  0.5509664796994898
  0.6309433011394816  0.4558434056432787  0.5506990500041908
  0.4883403989010020  0.3205308410065584  0.4192572139063842
  0.5431671715760515  0.2588208318385838  0.4198172205132025
  0.5404670409878634  0.2137001274701760  0.5508147597758821
  0.4816855598133714  0.0987442557517255  0.5509514666009920
  0.0407515445268416  0.5984230681269409  0.4033052624551559
  0.9957706629273844  0.5963596761854006  0.4737383530935446
  0.0770206252181751  0.6167346509238172  0.4832388339270608
  0.4380799758666853  0.5012940715175205  0.3375140884119645
  0.4694876423971124  0.4524984148617861  0.3122014412566188
  0.3902585975072341  0.4186440126311837  0.3403653239340159
  0.4460173829373559  0.8664931307019899  0.3362948427572050
  0.4959014403860138  0.9468473660913190  0.3126993653803609
  0.5294946348441840  0.9024158072152630  0.3426577274313658
  0.9298617550877637  0.3140476109831312  0.5603555515719023
  0.8942050225694089  0.2947780202220542  0.4801210786249044
  0.9754613018298670  0.3155700717881160  0.4907446550970533
  0.5039790779534741  0.4629821990379952  0.6457832512956116
  0.5346127631534543  0.4134831894485060  0.6206718362937593
  0.5830528114438280  0.4960342546447549  0.6172898079061184
  0.4739550043378102  0.9656658863553247  0.6454552013356007
  0.5236473037100922  0.0460347223319957  0.6217787770946686
  0.4401192371450691  0.0099802338624499  0.6158645598571013
  0.3208409645754386  0.6247459459544231  0.4719782988509706
  0.6497786254683362  0.2877591205619723  0.4865632074970563
  0.9468778509564828  0.4810240454242916  0.4717392263259583
  0.4944339362867396  0.4275183997237946  0.4247831741710968
  0.5158519470087271  0.9948827338592636  0.4257772875042107
  0.0240230093182561  0.4307258882267675  0.4903936779076687
  0.4784762385335029  0.4872325600669996  0.5332042545958728
  0.4534778653625793  0.9176535201965379  0.5323217406233454
  0.2537373240129313  0.5921031838684385  0.4725069243675932
  0.3532795521418777  0.5907125686188479  0.4722650243462070
  0.3544472957896829  0.6908852185412684  0.4714059647142506
  0.3318140843846038  0.7244989023318595  0.5077206033552102
  0.3647522010516226  0.7894692237806140  0.5072216931983249
  0.4210556192796417  0.8235872852293369  0.4703202744577055
  0.4435534306967313  0.7895577050498517  0.4347197126379925
  0.4110234130845001  0.7244347857167170  0.4350446956076155
  0.2201431077475107  0.6102290196869760  0.4298022403288400
  0.1542813075230214  0.5787812217964898  0.4311541042762386
  0.1197332859471558  0.5280098144258005  0.4746282493623397
  0.1540280427031036  0.5094055987199226  0.5161213179378876
  0.2197491296925662  0.5409590970866418  0.5156305665709837
  0.3294849096503043  0.5346608295366622  0.4359475631635732
  0.3615790157578616  0.5013556741074865  0.4357848770086719
  0.4182604881902847  0.5225419525967183  0.4716077986038130
  0.4409744631940242  0.5780751548931278  0.5088872602141947
  0.4094428175277400  0.6118126781098852  0.5091984266657406
  0.7169108277181238  0.3199058197204820  0.4867439941967291
  0.6178685749455965  0.3222784892315431  0.4862261353148867
  0.6157145954498944  0.2216066532087737  0.4870482809401864
  0.6382454259025394  0.1877924120993555  0.4509400957217196
  0.6050060640006905  0.1228333041676350  0.4513325591770609
  0.5484860511932794  0.0889230175135509  0.4879370021975191
  0.5261070082497881  0.1231235259177126  0.5234047480620490
  0.5589366056431899  0.1882591974654204  0.5231490032614730
  0.7498732381262982  0.3012454579229242  0.5297363070056065
  0.8157639767885456  0.3324443220216793  0.5291971386243191
  0.8510369499466890  0.3835421459363957  0.4863087543744271
  0.8173236510460029  0.4024895738124243  0.4443357900338682
  0.7516042481070926  0.3711860280847290  0.4439919179158949
  0.6419536486429820  0.3782536707854049  0.5227367491387866
  0.6104377959286182  0.4121214183979447  0.5227487211833548
  0.5540260259158387  0.3915729089212903  0.4865913746726775
  0.5309934294682748  0.3360583705461977  0.4491851067593586
  0.5619520119254986  0.3017761015678104  0.4490151202940069
  0.0497343652316999  0.4922033160070640  0.4771330837686634
  0.0097127581973169  0.5180446390574289  0.4681534363731856
  0.0325331739536310  0.5863800325545796  0.4567879837877271
  0.4531527401112712  0.4878846127324508  0.4736134133474863
  0.4618424424941381  0.4574756020670918  0.4177748805311907
  0.4386735314599193  0.4579848307386243  0.3481405553592154
  0.4550147249238563  0.8928056440557270  0.4728947969745079
  0.4869468481907049  0.9327768186986845  0.4180169514449190
  0.4892595704671621  0.9104663496496599  0.3485816857129507
  0.9384585678969515  0.3255566919313111  0.5067676502918843
  0.9611824381296543  0.3937375643182790  0.4943415127071447
  0.9211155137171758  0.4194576440995590  0.4847513095773124
  0.5344380374594806  0.4569668056350764  0.6098160197461766
  0.5110952163029836  0.4573014801090451  0.5402155724316131
  0.5196037031299596  0.4267079991147398  0.4844353999030204
  0.4803821713994196  0.0020263392575757  0.6096490568003645
  0.4824291990275498  0.9797379496868217  0.5401214586363139
  0.5143216422589987  0.0197075339802169  0.4852287529814916
 
  0.00000000E+00  0.00000000E+00  0.00000000E+00
  0.00000000E+00  0.00000000E+00  0.00000000E+00
  0.00000000E+00  0.00000000E+00  0.00000000E+00
  0.00000000E+00  0.00000000E+00  0.00000000E+00
  0.00000000E+00  0.00000000E+00  0.00000000E+00
  0.00000000E+00  0.00000000E+00  0.00000000E+00
  0.00000000E+00  0.00000000E+00  0.00000000E+00
  0.00000000E+00  0.00000000E+00  0.00000000E+00
  0.00000000E+00  0.00000000E+00  0.00000000E+00
  0.00000000E+00  0.00000000E+00  0.00000000E+00
  0.00000000E+00  0.00000000E+00  0.00000000E+00
  0.00000000E+00  0.00000000E+00  0.00000000E+00
  0.00000000E+00  0.00000000E+00  0.00000000E+00
  0.00000000E+00  0.00000000E+00  0.00000000E+00
  0.00000000E+00  0.00000000E+00  0.00000000E+00
  0.00000000E+00  0.00000000E+00  0.00000000E+00
  0.00000000E+00  0.00000000E+00  0.00000000E+00
  0.00000000E+00  0.00000000E+00  0.00000000E+00
  0.00000000E+00  0.00000000E+00  0.00000000E+00
  0.00000000E+00  0.00000000E+00  0.00000000E+00
  0.00000000E+00  0.00000000E+00  0.00000000E+00
  0.00000000E+00  0.00000000E+00  0.00000000E+00
  0.00000000E+00  0.00000000E+00  0.00000000E+00
  0.00000000E+00  0.00000000E+00  0.00000000E+00
  0.00000000E+00  0.00000000E+00  0.00000000E+00
  0.00000000E+00  0.00000000E+00  0.00000000E+00
  0.00000000E+00  0.00000000E+00  0.00000000E+00
  0.00000000E+00  0.00000000E+00  0.00000000E+00
  0.00000000E+00  0.00000000E+00  0.00000000E+00
  0.00000000E+00  0.00000000E+00  0.00000000E+00
  0.00000000E+00  0.00000000E+00  0.00000000E+00
  0.00000000E+00  0.00000000E+00  0.00000000E+00
  0.00000000E+00  0.00000000E+00  0.00000000E+00
  0.00000000E+00  0.00000000E+00  0.00000000E+00
  0.00000000E+00  0.00000000E+00  0.00000000E+00
  0.00000000E+00  0.00000000E+00  0.00000000E+00
  0.00000000E+00  0.00000000E+00  0.00000000E+00
  0.00000000E+00  0.00000000E+00  0.00000000E+00
  0.00000000E+00  0.00000000E+00  0.00000000E+00
  0.00000000E+00  0.00000000E+00  0.00000000E+00
  0.00000000E+00  0.00000000E+00  0.00000000E+00
  0.00000000E+00  0.00000000E+00  0.00000000E+00
  0.00000000E+00  0.00000000E+00  0.00000000E+00
  0.00000000E+00  0.00000000E+00  0.00000000E+00
  0.00000000E+00  0.00000000E+00  0.00000000E+00
  0.00000000E+00  0.00000000E+00  0.00000000E+00
  0.00000000E+00  0.00000000E+00  0.00000000E+00
  0.00000000E+00  0.00000000E+00  0.00000000E+00
  0.00000000E+00  0.00000000E+00  0.00000000E+00
  0.00000000E+00  0.00000000E+00  0.00000000E+00
  0.00000000E+00  0.00000000E+00  0.00000000E+00
  0.00000000E+00  0.00000000E+00  0.00000000E+00
  0.00000000E+00  0.00000000E+00  0.00000000E+00
  0.00000000E+00  0.00000000E+00  0.00000000E+00
  0.00000000E+00  0.00000000E+00  0.00000000E+00
  0.00000000E+00  0.00000000E+00  0.00000000E+00
  0.00000000E+00  0.00000000E+00  0.00000000E+00
  0.00000000E+00  0.00000000E+00  0.00000000E+00
  0.00000000E+00  0.00000000E+00  0.00000000E+00
  0.00000000E+00  0.00000000E+00  0.00000000E+00
  0.00000000E+00  0.00000000E+00  0.00000000E+00
  0.00000000E+00  0.00000000E+00  0.00000000E+00
  0.00000000E+00  0.00000000E+00  0.00000000E+00
  0.00000000E+00  0.00000000E+00  0.00000000E+00
  0.00000000E+00  0.00000000E+00  0.00000000E+00
  0.00000000E+00  0.00000000E+00  0.00000000E+00
  0.00000000E+00  0.00000000E+00  0.00000000E+00
  0.00000000E+00  0.00000000E+00  0.00000000E+00
  0.00000000E+00  0.00000000E+00  0.00000000E+00
  0.00000000E+00  0.00000000E+00  0.00000000E+00
  0.00000000E+00  0.00000000E+00  0.00000000E+00
  0.00000000E+00  0.00000000E+00  0.00000000E+00
  0.00000000E+00  0.00000000E+00  0.00000000E+00
  0.00000000E+00  0.00000000E+00  0.00000000E+00
  0.00000000E+00  0.00000000E+00  0.00000000E+00
  0.00000000E+00  0.00000000E+00  0.00000000E+00
  0.00000000E+00  0.00000000E+00  0.00000000E+00
  0.00000000E+00  0.00000000E+00  0.00000000E+00
  0.00000000E+00  0.00000000E+00  0.00000000E+00
  0.00000000E+00  0.00000000E+00  0.00000000E+00
  0.00000000E+00  0.00000000E+00  0.00000000E+00
  0.00000000E+00  0.00000000E+00  0.00000000E+00
  0.00000000E+00  0.00000000E+00  0.00000000E+00
  0.00000000E+00  0.00000000E+00  0.00000000E+00
  0.00000000E+00  0.00000000E+00  0.00000000E+00
  0.00000000E+00  0.00000000E+00  0.00000000E+00
  0.00000000E+00  0.00000000E+00  0.00000000E+00
  0.00000000E+00  0.00000000E+00  0.00000000E+00
  0.00000000E+00  0.00000000E+00  0.00000000E+00
  0.00000000E+00  0.00000000E+00  0.00000000E+00
  0.00000000E+00  0.00000000E+00  0.00000000E+00
  0.00000000E+00  0.00000000E+00  0.00000000E+00
  0.00000000E+00  0.00000000E+00  0.00000000E+00
  0.00000000E+00  0.00000000E+00  0.00000000E+00
  0.00000000E+00  0.00000000E+00  0.00000000E+00
  0.00000000E+00  0.00000000E+00  0.00000000E+00
  0.00000000E+00  0.00000000E+00  0.00000000E+00
  0.00000000E+00  0.00000000E+00  0.00000000E+00
  0.00000000E+00  0.00000000E+00  0.00000000E+00
  0.00000000E+00  0.00000000E+00  0.00000000E+00
  0.00000000E+00  0.00000000E+00  0.00000000E+00
  0.00000000E+00  0.00000000E+00  0.00000000E+00
  0.00000000E+00  0.00000000E+00  0.00000000E+00
  0.00000000E+00  0.00000000E+00  0.00000000E+00
